                                        
   1.0000000000000000     
     8.7750270658038350    0.0000000000000000    0.0000000000000003
     0.0000000000000000   12.2359474203860881    0.0000000000000000
     0.0000000000000002    0.0000000000000000    8.3620894282166418
   Cs   I    Sn
     4    12     4
Direct
  0.0679961423449240  0.2500000000000000  0.9758539897510659
  0.9320038426550781  0.7500000000000000  0.0241460342489358
  0.4320038426550785  0.7500000000000000  0.4758539607510675
  0.5679961573449219  0.2500000000000000  0.5241460102489341
  0.2028486868728858  0.5308274084188115  0.1987764822404512
  0.7971513131271143  0.4691725915811882  0.8012235177595487
  0.2971513131271143  0.4691725915811882  0.6987764822404513
  0.7028486868728857  0.5308274084188115  0.3012235177595491
  0.7971513131271143  0.0308274084188118  0.8012235177595487
  0.2028486868728858  0.9691725915811885  0.1987764822404512
  0.7028486868728857  0.9691725915811885  0.3012235177595491
  0.2971513131271143  0.0308274084188118  0.6987764822404513
  0.4990228249377295  0.2500000000000000  0.0597517324229886
  0.5009771750622708  0.7500000000000000  0.9402482375770090
  0.0009771750622706  0.7500000000000000  0.5597517624229910
 -0.0009771750622706  0.2500000000000000  0.4402482675770116
  0.5000000000000000  0.5000000000000000  0.0000000000000000
  0.0000000000000000  0.5000000000000000  0.5000000000000000
  0.5000000000000000  0.0000000000000000  0.0000000000000000
  0.0000000000000000  0.0000000000000000  0.5000000000000000

  0.00000000E+00  0.00000000E+00  0.00000000E+00
  0.00000000E+00  0.00000000E+00  0.00000000E+00
  0.00000000E+00  0.00000000E+00  0.00000000E+00
  0.00000000E+00  0.00000000E+00  0.00000000E+00
  0.00000000E+00  0.00000000E+00  0.00000000E+00
  0.00000000E+00  0.00000000E+00  0.00000000E+00
  0.00000000E+00  0.00000000E+00  0.00000000E+00
  0.00000000E+00  0.00000000E+00  0.00000000E+00
  0.00000000E+00  0.00000000E+00  0.00000000E+00
  0.00000000E+00  0.00000000E+00  0.00000000E+00
  0.00000000E+00  0.00000000E+00  0.00000000E+00
  0.00000000E+00  0.00000000E+00  0.00000000E+00
  0.00000000E+00  0.00000000E+00  0.00000000E+00
  0.00000000E+00  0.00000000E+00  0.00000000E+00
  0.00000000E+00  0.00000000E+00  0.00000000E+00
  0.00000000E+00  0.00000000E+00  0.00000000E+00
  0.00000000E+00  0.00000000E+00  0.00000000E+00
  0.00000000E+00  0.00000000E+00  0.00000000E+00
  0.00000000E+00  0.00000000E+00  0.00000000E+00
  0.00000000E+00  0.00000000E+00  0.00000000E+00
