MA-Pb-I  Phonons/2015_MAPbI3/MAPbI3-Cubi
   1.00000000000000     
    17.7132244109999988    0.0000000000000000    0.0000000000000000
    -0.1426931695000000   17.7112591496999983    0.0000000000000000
     0.1968164558000000   -0.1964737486000000   12.7543833320999997
   C    N    H    Pb   I 
    16    16    96    16    49
Direct
  0.2137536437137927  0.0221779630540583  0.2717318419958086
  0.7297106705046363  0.5229533629040573  0.2674543261422357
  0.7246045240021931  0.5209027140697015  0.7344000050943851
  0.9766355810363166  0.7728928985614245  0.2398711396516064
  0.9729549565771877  0.7793507906222663  0.6928012149451825
  0.2276102143129901  0.0202486339830064  0.7215329302117515
  0.4799630206420104  0.2886220495359412  0.2364653059999696
  0.4646096857013993  0.2771078854052370  0.7631687043817956
  0.9741682399731771  0.2771531901113263  0.2411300183536568
  0.9535007340574474  0.2569995210116521  0.7362944831058342
  0.2221131092374560  0.5280024498992975  0.2564708336990373
  0.2239343149291324  0.5301017690870341  0.7331799342805251
  0.4587686425439533  0.7554987499122511  0.2313998205804279
  0.4931545643253680  0.7927372218854832  0.7307059479270278
  0.7515532648756653  0.0392448690727699  0.2802389660051193
  0.7353488935113504  0.0209381013207366  0.7074215874827011
  0.2576196371526649  0.9662914371375697  0.2092065341909106
  0.7810892820905170  0.4693886660780247  0.2125096526104164
  0.7781660097770141  0.4713126664390881  0.7880522916636686
  0.0280116619795549  0.7173843971033877  0.2859792610022819
  0.0066705635333764  0.7431555894627688  0.7847889964335900
  0.2779556017880760  0.9699917622447264  0.7796429680655699
  0.5276172924172243  0.2406506853614238  0.3020669571355579
  0.5218560580004589  0.2260343688235620  0.7159231435153034
  0.0265770871226279  0.2273731927419226  0.2965448666609807
  0.0322540192479458  0.2314269975328146  0.7204754268766995
  0.2769837048008874  0.4749867065679170  0.2076614090187367
  0.2738535162268667  0.4779994744055310  0.7888850966444184
  0.5284866438824871  0.7321359705065067  0.2842712080282778
  0.5210678742156332  0.7141180056692561  0.7253300425439954
  0.7864959533878260  0.9816947639133363  0.2096906140453573
  0.7875724486187249  0.9714161355993001  0.7637149257346181
  0.2229752458212994  0.0783421068403082  0.2379998984778418
  0.7440438413788966  0.5805688194238015  0.2426173853091708
  0.7325349673338104  0.5137923971239966  0.6491853880469832
  0.9839091389605240  0.7711665989263403  0.1541214955780328
  0.9980355263819921  0.7547383751838518  0.6208601922140480
  0.2326170996396832  0.0066400157616957  0.6373550913415026
  0.4851095621851744  0.2694439052609920  0.1542923558626267
  0.4303129310295324  0.2999337476280988  0.7001417166119321
  0.9809380899273418  0.2675209157527963  0.1561595360922335
  0.9345669097600916  0.2838194204249083  0.6642585108272495
  0.1650880289945335  0.5123541881928823  0.2304829097986263
  0.2334364602225478  0.5229220213242451  0.6482565054057169
  0.4528629717683587  0.7225367181305145  0.1581821344635740
  0.4637727975325983  0.8048580646272403  0.6576457184891776
  0.7831326344762707  0.0925834571010609  0.2721650155748162
  0.7419872098376848  0.0102558342938687  0.6227075782458624
  0.2333539019026190  0.0218398573113639  0.3530453349621449
  0.7371748816359449  0.5179920277065936  0.3524531652423629
  0.7360483718049656  0.5798373205873546  0.7578777241610786
  0.9910470467075287  0.8293247234097476  0.2710856390549434
  0.9849445034228378  0.8403446279713874  0.6966132803613311
  0.2449151661178479  0.0791508272933384  0.7364609888383788
  0.4990958195515499  0.3476669946294035  0.2439446200870876
  0.4933996264476750  0.3230962836757860  0.8057318303886070
  0.9876722577548178  0.3363098591673848  0.2611753908764436
  0.9512584330555995  0.2971748915028817  0.8028940146367062
  0.2361791636803741  0.5856516761532269  0.2314559132043149
  0.2372685254808566  0.5884662059534341  0.7575426391389332
  0.4632992956193682  0.8158926592696831  0.2135801130343770
  0.5415228484605911  0.8313731993631898  0.7399642723312601
  0.7543515789591366  0.0196823974151862  0.3614047913008601
  0.7492203607964469  0.0801828839322519  0.7262972570735423
  0.1535440785095302  0.0067062354656898  0.2693473490553557
  0.6712012729240031  0.5089782368858152  0.2464534389624068
  0.6666717879182726  0.5048545830229293  0.7575001759059932
  0.9181733582196877  0.7580136738743219  0.2619135699993433
  0.9116112079061728  0.7691953832023934  0.6942547997347808
  0.1691165471803224  0.0112590107993317  0.7490118772014965
  0.4209253962073360  0.2834245260720727  0.2634780943203758
  0.4286726411199115  0.2449141086730262  0.8177153302928510
  0.9160073403794198  0.2636232461506206  0.2662825775674970
  0.9175320672031947  0.2077312369446435  0.7533467072619555
  0.2254457456283747  0.5242244383304879  0.3422019115359348
  0.1648580836064814  0.5166157139153583  0.7535780884041399
  0.4102885754749763  0.7447280545774027  0.2840668005705625
  0.4545989424386491  0.7988965132648549  0.7986934681230486
  0.6924672155209262  0.0465680440538868  0.2579021706405771
  0.6770854860910217  0.0081190453497519  0.7328538067661358
  0.3145029504133825  0.9821856704850866  0.2060873817255798
  0.8376336053307863  0.4802907247641398  0.2304986886887946
  0.8342496698018451  0.4856286255656219  0.7698001089143612
  0.0846449813985224  0.7296568128519452  0.2683572205114967
  0.0652221441375913  0.7511698128940064  0.7857109619745961
  0.3345501349972284  0.9768531058386760  0.7560221814952628
  0.5840485430534560  0.2415724178103631  0.2766191322487065
  0.5568087490657139  0.2548827577288106  0.6632621818759374
  0.0830279134214942  0.2389538472112073  0.2763823760510508
  0.0675215441243730  0.2751472227905111  0.6955879451019474
  0.2755617384916031  0.4764862250011226  0.1262322631223719
  0.3310546649039643  0.4891307070818823  0.7731029420470183
  0.5766221050836509  0.7410386641540196  0.2380386854487084
  0.5607633713599844  0.7057958999496297  0.6649642843752809
  0.8432279837593312  0.9750169676471746  0.2283002098877746
  0.8440176918903913  0.9814561705101312  0.7420330574028522
  0.2376309050475482  0.9615890518400326  0.1326489540489637
  0.7768452327766349  0.4732623454167916  0.1315183364356518
  0.7694401565272319  0.4143810244162709  0.7679348500547174
  0.0167083876354395  0.6624514126710935  0.2592163351960323
  0.9967755568193953  0.6848712501785192  0.7842824917276585
  0.2627088226642241  0.9132037939759209  0.7695905789426074
  0.5081626511384575  0.1848173189312879  0.3005302122373568
  0.4962111233606163  0.1821450129566139  0.6740196756633851
  0.0156661384227242  0.1704133950180955  0.2795702907411708
  0.0371187441433879  0.1892084386361030  0.6629268031385728
  0.2654754321697392  0.4191651199589418  0.2285393500514136
  0.2629346321348277  0.4214526098490564  0.7683826122115082
  0.5260955551643972  0.6750066504329796  0.3024070043546537
  0.4779287590687127  0.6754220641804688  0.7104245337560496
  0.7860561674288622  0.9998789856580599  0.1321138669972183
  0.7753892974237757  0.9142401233985022  0.7498611907092710
  0.2537769241785264  0.9122129412322331  0.2404764529970155
  0.7687109954577516  0.4133559164200998  0.2315761998380324
  0.7720789197651546  0.4759708263243021  0.8691277614589203
  0.0228409692588070  0.7161962347661588  0.3672193850948845
  0.9844344407511609  0.7655508009207457  0.8547503301758521
  0.2759094237872359  0.9824984571233640  0.8596438751435945
  0.5280140515733748  0.2598457106309645  0.3799025607159327
  0.5547672948479754  0.2027042090929009  0.7740510167057888
  0.0218026893100183  0.2344291509213735  0.3774359138972854
  0.0536653902318001  0.2103771784363361  0.7902631616369361
  0.3323769072218709  0.4878292337757635  0.2290361471818359
  0.2657872095116760  0.4825112846384554  0.8696473074895731
  0.5370884834930952  0.7634290081409739  0.3536057538045429
  0.5458484703282334  0.6988927750618386  0.7960169779190490
  0.7594352040531557  0.9292416465214743  0.2142408303353752
  0.7838110288875395  0.9811930036497262  0.8442665499938837
  0.2370198623858702  0.7625282697153768  0.5020749689496979
  0.7391550552655295  0.2609789270738268  0.4984424027113549
  0.7337334642127362  0.2569558365991799  0.9943466700385114
  0.9816325909805403  0.5113317677036978  0.5001211971964948
  0.9896513138177133  0.5116662968710618  0.9972645109343172
  0.2374741846002830  0.7583660947314135  0.9988760640013564
  0.4787129014190096  0.0146750315175715  0.4960198277643374
  0.4759277660026738  0.0246033419876414  0.0173140603186097
  0.9893480113651117  0.0103548683153180  0.4881398457519339
  0.9910536955940211  0.0158743558921154  0.9868480368143053
  0.2390676397353367  0.2696173746302665  0.4991591421504647
  0.2324209070730741  0.2635876718255012  0.9956808708464174
  0.4806713460384164  0.5112800069513534  0.4993720307722737
  0.4931032445377501  0.5136198806183979  0.9978078303696754
  0.7379298271099107  0.7637930512189541  0.4819484492440141
  0.7444133685595311  0.7551324051628804  0.9836962992142541
  0.2288986711969619  0.7642733570672856  0.2469612731427028
  0.7264439449339013  0.2713480967660573  0.2466611491522090
  0.7323158081122073  0.2731877445094349  0.7476372588478724
  0.9813577024620685  0.5155574742242000  0.2459386015322454
  0.9715795763478720  0.5380292193288659  0.7476412931257829
  0.2111182695589384  0.7758519684567705  0.7491796004707515
  0.4294156531798604  0.0673699564139253  0.2477054601612523
  0.4749724932597458  0.0159369073765321  0.7390998478185324
  0.9823288165098262  0.0280188444042338  0.2368987896226872
  0.9837134722392418  0.0206747736521273  0.7372217672331391
  0.2228897785422410  0.2755444474479682  0.2466405681095707
  0.2315084764911068  0.2810386322125850  0.7466016782175305
  0.4778931774616616  0.5304784459306853  0.2486599248139626
  0.4727228296723160  0.5142391936067037  0.7490173542559503
  0.7309696912691214  0.7780350304362975  0.2260209550515028
  0.7333332044841721  0.7728686413818318  0.7274560091571307
  0.3764232155947881  0.8731511111516402  0.9982189438658762
  0.8792787617005452  0.3671074333963346  0.9974560867813631
  0.8325953529721000  0.4134014518393849  0.4987706783048562
  0.0832042450485929  0.6649647558005650  0.0112681649949604
  0.1196984082388182  0.6269273997158644  0.5011843683542936
  0.3342517674897241  0.9121301462967425  0.4884903749148412
  0.5762453102712577  0.1727060015657455  0.9807049368949602
  0.6240413438959680  0.1232140949694499  0.4967849177522038
  0.0731480586132011  0.1762113772062477  0.9840096649606201
  0.1252652460682178  0.1281938941845911  0.5027061820071648
  0.3769967148162870  0.3730976783473103  0.0031983816039201
  0.3253447274738452  0.4250459860965170  0.4867137159610982
  0.5841986951205254  0.6682138943661134  0.9842283468632719
  0.6227106136188862  0.6251054707499125  0.5024603865734419
  0.8943349021616984  0.8589782691486237  0.9720663819375980
  0.8447800844879251  0.9066738409380084  0.4835860611720763
  0.0958834220666276  0.8727451004498793  0.4691340633457708
  0.5823931337126610  0.3619188685145334  0.5136231774646260
  0.6434312459885029  0.4171041610581933  0.0010299835638273
  0.8760637844931339  0.6560876520971972  0.4679705851917099
  0.8322115046013945  0.6011836672691107  0.0021374168316333
  0.1381855253401754  0.9174765570938616  0.9956664537516042
  0.3866641159870886  0.1730843775600194  0.5162257059130845
  0.3173713938038775  0.1086367705800503  0.9790989555688180
  0.8831460948537367  0.1602665276505606  0.4857035615023770
  0.8239371679609639  0.0977382771746498  0.9871947568456122
  0.0799274011694795  0.3622298341375474  0.5112572771865347
  0.1428834420334920  0.4220616609951937  0.9945546482264420
  0.3875522146365730  0.6665481704215188  0.5137295741802614
  0.3357508647316393  0.6114710794540883  0.9973802420213496
  0.5875483986176232  0.8713516950896212  0.4736878736759395
  0.6434651400162152  0.8977702727994896  0.9342455278803518
  0.5830884249728158  0.9365719064095953  0.1658178382118176
 
  0.00000000E+00  0.00000000E+00  0.00000000E+00
  0.00000000E+00  0.00000000E+00  0.00000000E+00
  0.00000000E+00  0.00000000E+00  0.00000000E+00
  0.00000000E+00  0.00000000E+00  0.00000000E+00
  0.00000000E+00  0.00000000E+00  0.00000000E+00
  0.00000000E+00  0.00000000E+00  0.00000000E+00
  0.00000000E+00  0.00000000E+00  0.00000000E+00
  0.00000000E+00  0.00000000E+00  0.00000000E+00
  0.00000000E+00  0.00000000E+00  0.00000000E+00
  0.00000000E+00  0.00000000E+00  0.00000000E+00
  0.00000000E+00  0.00000000E+00  0.00000000E+00
  0.00000000E+00  0.00000000E+00  0.00000000E+00
  0.00000000E+00  0.00000000E+00  0.00000000E+00
  0.00000000E+00  0.00000000E+00  0.00000000E+00
  0.00000000E+00  0.00000000E+00  0.00000000E+00
  0.00000000E+00  0.00000000E+00  0.00000000E+00
  0.00000000E+00  0.00000000E+00  0.00000000E+00
  0.00000000E+00  0.00000000E+00  0.00000000E+00
  0.00000000E+00  0.00000000E+00  0.00000000E+00
  0.00000000E+00  0.00000000E+00  0.00000000E+00
  0.00000000E+00  0.00000000E+00  0.00000000E+00
  0.00000000E+00  0.00000000E+00  0.00000000E+00
  0.00000000E+00  0.00000000E+00  0.00000000E+00
  0.00000000E+00  0.00000000E+00  0.00000000E+00
  0.00000000E+00  0.00000000E+00  0.00000000E+00
  0.00000000E+00  0.00000000E+00  0.00000000E+00
  0.00000000E+00  0.00000000E+00  0.00000000E+00
  0.00000000E+00  0.00000000E+00  0.00000000E+00
  0.00000000E+00  0.00000000E+00  0.00000000E+00
  0.00000000E+00  0.00000000E+00  0.00000000E+00
  0.00000000E+00  0.00000000E+00  0.00000000E+00
  0.00000000E+00  0.00000000E+00  0.00000000E+00
  0.00000000E+00  0.00000000E+00  0.00000000E+00
  0.00000000E+00  0.00000000E+00  0.00000000E+00
  0.00000000E+00  0.00000000E+00  0.00000000E+00
  0.00000000E+00  0.00000000E+00  0.00000000E+00
  0.00000000E+00  0.00000000E+00  0.00000000E+00
  0.00000000E+00  0.00000000E+00  0.00000000E+00
  0.00000000E+00  0.00000000E+00  0.00000000E+00
  0.00000000E+00  0.00000000E+00  0.00000000E+00
  0.00000000E+00  0.00000000E+00  0.00000000E+00
  0.00000000E+00  0.00000000E+00  0.00000000E+00
  0.00000000E+00  0.00000000E+00  0.00000000E+00
  0.00000000E+00  0.00000000E+00  0.00000000E+00
  0.00000000E+00  0.00000000E+00  0.00000000E+00
  0.00000000E+00  0.00000000E+00  0.00000000E+00
  0.00000000E+00  0.00000000E+00  0.00000000E+00
  0.00000000E+00  0.00000000E+00  0.00000000E+00
  0.00000000E+00  0.00000000E+00  0.00000000E+00
  0.00000000E+00  0.00000000E+00  0.00000000E+00
  0.00000000E+00  0.00000000E+00  0.00000000E+00
  0.00000000E+00  0.00000000E+00  0.00000000E+00
  0.00000000E+00  0.00000000E+00  0.00000000E+00
  0.00000000E+00  0.00000000E+00  0.00000000E+00
  0.00000000E+00  0.00000000E+00  0.00000000E+00
  0.00000000E+00  0.00000000E+00  0.00000000E+00
  0.00000000E+00  0.00000000E+00  0.00000000E+00
  0.00000000E+00  0.00000000E+00  0.00000000E+00
  0.00000000E+00  0.00000000E+00  0.00000000E+00
  0.00000000E+00  0.00000000E+00  0.00000000E+00
  0.00000000E+00  0.00000000E+00  0.00000000E+00
  0.00000000E+00  0.00000000E+00  0.00000000E+00
  0.00000000E+00  0.00000000E+00  0.00000000E+00
  0.00000000E+00  0.00000000E+00  0.00000000E+00
  0.00000000E+00  0.00000000E+00  0.00000000E+00
  0.00000000E+00  0.00000000E+00  0.00000000E+00
  0.00000000E+00  0.00000000E+00  0.00000000E+00
  0.00000000E+00  0.00000000E+00  0.00000000E+00
  0.00000000E+00  0.00000000E+00  0.00000000E+00
  0.00000000E+00  0.00000000E+00  0.00000000E+00
  0.00000000E+00  0.00000000E+00  0.00000000E+00
  0.00000000E+00  0.00000000E+00  0.00000000E+00
  0.00000000E+00  0.00000000E+00  0.00000000E+00
  0.00000000E+00  0.00000000E+00  0.00000000E+00
  0.00000000E+00  0.00000000E+00  0.00000000E+00
  0.00000000E+00  0.00000000E+00  0.00000000E+00
  0.00000000E+00  0.00000000E+00  0.00000000E+00
  0.00000000E+00  0.00000000E+00  0.00000000E+00
  0.00000000E+00  0.00000000E+00  0.00000000E+00
  0.00000000E+00  0.00000000E+00  0.00000000E+00
  0.00000000E+00  0.00000000E+00  0.00000000E+00
  0.00000000E+00  0.00000000E+00  0.00000000E+00
  0.00000000E+00  0.00000000E+00  0.00000000E+00
  0.00000000E+00  0.00000000E+00  0.00000000E+00
  0.00000000E+00  0.00000000E+00  0.00000000E+00
  0.00000000E+00  0.00000000E+00  0.00000000E+00
  0.00000000E+00  0.00000000E+00  0.00000000E+00
  0.00000000E+00  0.00000000E+00  0.00000000E+00
  0.00000000E+00  0.00000000E+00  0.00000000E+00
  0.00000000E+00  0.00000000E+00  0.00000000E+00
  0.00000000E+00  0.00000000E+00  0.00000000E+00
  0.00000000E+00  0.00000000E+00  0.00000000E+00
  0.00000000E+00  0.00000000E+00  0.00000000E+00
  0.00000000E+00  0.00000000E+00  0.00000000E+00
  0.00000000E+00  0.00000000E+00  0.00000000E+00
  0.00000000E+00  0.00000000E+00  0.00000000E+00
  0.00000000E+00  0.00000000E+00  0.00000000E+00
  0.00000000E+00  0.00000000E+00  0.00000000E+00
  0.00000000E+00  0.00000000E+00  0.00000000E+00
  0.00000000E+00  0.00000000E+00  0.00000000E+00
  0.00000000E+00  0.00000000E+00  0.00000000E+00
  0.00000000E+00  0.00000000E+00  0.00000000E+00
  0.00000000E+00  0.00000000E+00  0.00000000E+00
  0.00000000E+00  0.00000000E+00  0.00000000E+00
  0.00000000E+00  0.00000000E+00  0.00000000E+00
  0.00000000E+00  0.00000000E+00  0.00000000E+00
  0.00000000E+00  0.00000000E+00  0.00000000E+00
  0.00000000E+00  0.00000000E+00  0.00000000E+00
  0.00000000E+00  0.00000000E+00  0.00000000E+00
  0.00000000E+00  0.00000000E+00  0.00000000E+00
  0.00000000E+00  0.00000000E+00  0.00000000E+00
  0.00000000E+00  0.00000000E+00  0.00000000E+00
  0.00000000E+00  0.00000000E+00  0.00000000E+00
  0.00000000E+00  0.00000000E+00  0.00000000E+00
  0.00000000E+00  0.00000000E+00  0.00000000E+00
  0.00000000E+00  0.00000000E+00  0.00000000E+00
  0.00000000E+00  0.00000000E+00  0.00000000E+00
  0.00000000E+00  0.00000000E+00  0.00000000E+00
  0.00000000E+00  0.00000000E+00  0.00000000E+00
  0.00000000E+00  0.00000000E+00  0.00000000E+00
  0.00000000E+00  0.00000000E+00  0.00000000E+00
  0.00000000E+00  0.00000000E+00  0.00000000E+00
  0.00000000E+00  0.00000000E+00  0.00000000E+00
  0.00000000E+00  0.00000000E+00  0.00000000E+00
  0.00000000E+00  0.00000000E+00  0.00000000E+00
  0.00000000E+00  0.00000000E+00  0.00000000E+00
  0.00000000E+00  0.00000000E+00  0.00000000E+00
  0.00000000E+00  0.00000000E+00  0.00000000E+00
  0.00000000E+00  0.00000000E+00  0.00000000E+00
  0.00000000E+00  0.00000000E+00  0.00000000E+00
  0.00000000E+00  0.00000000E+00  0.00000000E+00
  0.00000000E+00  0.00000000E+00  0.00000000E+00
  0.00000000E+00  0.00000000E+00  0.00000000E+00
  0.00000000E+00  0.00000000E+00  0.00000000E+00
  0.00000000E+00  0.00000000E+00  0.00000000E+00
  0.00000000E+00  0.00000000E+00  0.00000000E+00
  0.00000000E+00  0.00000000E+00  0.00000000E+00
  0.00000000E+00  0.00000000E+00  0.00000000E+00
  0.00000000E+00  0.00000000E+00  0.00000000E+00
  0.00000000E+00  0.00000000E+00  0.00000000E+00
  0.00000000E+00  0.00000000E+00  0.00000000E+00
  0.00000000E+00  0.00000000E+00  0.00000000E+00
  0.00000000E+00  0.00000000E+00  0.00000000E+00
  0.00000000E+00  0.00000000E+00  0.00000000E+00
  0.00000000E+00  0.00000000E+00  0.00000000E+00
  0.00000000E+00  0.00000000E+00  0.00000000E+00
  0.00000000E+00  0.00000000E+00  0.00000000E+00
  0.00000000E+00  0.00000000E+00  0.00000000E+00
  0.00000000E+00  0.00000000E+00  0.00000000E+00
  0.00000000E+00  0.00000000E+00  0.00000000E+00
  0.00000000E+00  0.00000000E+00  0.00000000E+00
  0.00000000E+00  0.00000000E+00  0.00000000E+00
  0.00000000E+00  0.00000000E+00  0.00000000E+00
  0.00000000E+00  0.00000000E+00  0.00000000E+00
  0.00000000E+00  0.00000000E+00  0.00000000E+00
  0.00000000E+00  0.00000000E+00  0.00000000E+00
  0.00000000E+00  0.00000000E+00  0.00000000E+00
  0.00000000E+00  0.00000000E+00  0.00000000E+00
  0.00000000E+00  0.00000000E+00  0.00000000E+00
  0.00000000E+00  0.00000000E+00  0.00000000E+00
  0.00000000E+00  0.00000000E+00  0.00000000E+00
  0.00000000E+00  0.00000000E+00  0.00000000E+00
  0.00000000E+00  0.00000000E+00  0.00000000E+00
  0.00000000E+00  0.00000000E+00  0.00000000E+00
  0.00000000E+00  0.00000000E+00  0.00000000E+00
  0.00000000E+00  0.00000000E+00  0.00000000E+00
  0.00000000E+00  0.00000000E+00  0.00000000E+00
  0.00000000E+00  0.00000000E+00  0.00000000E+00
  0.00000000E+00  0.00000000E+00  0.00000000E+00
  0.00000000E+00  0.00000000E+00  0.00000000E+00
  0.00000000E+00  0.00000000E+00  0.00000000E+00
  0.00000000E+00  0.00000000E+00  0.00000000E+00
  0.00000000E+00  0.00000000E+00  0.00000000E+00
  0.00000000E+00  0.00000000E+00  0.00000000E+00
  0.00000000E+00  0.00000000E+00  0.00000000E+00
  0.00000000E+00  0.00000000E+00  0.00000000E+00
  0.00000000E+00  0.00000000E+00  0.00000000E+00
  0.00000000E+00  0.00000000E+00  0.00000000E+00
  0.00000000E+00  0.00000000E+00  0.00000000E+00
  0.00000000E+00  0.00000000E+00  0.00000000E+00
  0.00000000E+00  0.00000000E+00  0.00000000E+00
  0.00000000E+00  0.00000000E+00  0.00000000E+00
  0.00000000E+00  0.00000000E+00  0.00000000E+00
  0.00000000E+00  0.00000000E+00  0.00000000E+00
  0.00000000E+00  0.00000000E+00  0.00000000E+00
  0.00000000E+00  0.00000000E+00  0.00000000E+00
  0.00000000E+00  0.00000000E+00  0.00000000E+00
  0.00000000E+00  0.00000000E+00  0.00000000E+00
  0.00000000E+00  0.00000000E+00  0.00000000E+00
  0.00000000E+00  0.00000000E+00  0.00000000E+00
  0.00000000E+00  0.00000000E+00  0.00000000E+00
  0.00000000E+00  0.00000000E+00  0.00000000E+00
  0.00000000E+00  0.00000000E+00  0.00000000E+00
