MA-Pb-I  Phonons/2015_MAPbI3/MAPbI3-Cubi
   1.00000000000000     
    17.7132244109999988    0.0000000000000000    0.0000000000000000
    -0.1426931695000000   17.7112591496999983    0.0000000000000000
     0.1968164558000000   -0.1964737486000000   12.7543833320999997
   C    N    H    Pb   I 
    16    16    96    16    49
Direct
  0.2261895023531949  0.0230790163892025  0.2715969528448124
  0.7288114051500648  0.5252061491362826  0.2721213251327581
  0.7246829908182538  0.5225885974171085  0.7281477466025631
  0.9762625726682498  0.7725294725003213  0.2418787654492369
  0.9683982228729104  0.7814935180732634  0.6984679427051118
  0.2272016211747240  0.0230044320512873  0.7230019031872965
  0.4717821959720288  0.2821151906361214  0.2477959085290295
  0.4557590429053873  0.2825054132791627  0.7429874939742627
  0.9731958960111328  0.2775494246923427  0.2403944168914028
  0.9498631979414047  0.2572117938073870  0.7371897015013358
  0.2234932152086675  0.5281735957826825  0.2631629371269987
  0.2228843862513800  0.5279925441387809  0.7330564991399695
  0.4676462029816275  0.7689813645483766  0.2330003308986223
  0.4908402711366219  0.7941880519541983  0.7280073778256917
  0.7414309088479407  0.0218995440876427  0.2894951097555161
  0.7414918133317300  0.0194126077791225  0.6957772860442711
  0.2766334014003409  0.9698495111402645  0.2142631782732487
  0.7803067705794340  0.4722058187784847  0.2163035942192971
  0.7770316317370658  0.4722357748357015  0.7827184194499212
  0.0294334071494704  0.7188624032401913  0.2883013875540212
  0.0055303903757374  0.7426900163740394  0.7856911660254599
  0.2774961654291405  0.9713010581694516  0.7788684992626880
  0.5234654469423098  0.2283465396646817  0.2970901772882364
  0.5173484502512568  0.2334300398640387  0.7033096577684288
  0.0252005746187040  0.2289767730326669  0.2985529067021269
  0.0282853798144390  0.2324239392383725  0.7157778755084454
  0.2774143132684645  0.4752207925547918  0.2120896133909206
  0.2734037862744757  0.4756441094434822  0.7873311434616272
  0.5272381162638201  0.7307150641239712  0.2920542902566777
  0.5171970103426577  0.7151873373025091  0.7189929922515903
  0.7917288952783700  0.9669770878089826  0.2350850572445017
  0.7911591128386046  0.9644538233912621  0.7466113623788391
  0.2386184653773271  0.0807286093259435  0.2452091822521996
  0.7441596717132544  0.5832673300938628  0.2504555200270056
  0.7345011075827893  0.5166234944847555  0.6431350084819588
  0.9820635447159928  0.7692123152985545  0.1559986490716259
  0.9907658819145345  0.7590396348854093  0.6235572707742053
  0.2324067258113894  0.0114086695902961  0.6383121234891781
  0.4769639608095884  0.2761899965926586  0.1620527903462274
  0.4243541390928481  0.3032614085302081  0.6756900646015120
  0.9819828177906258  0.2675629864512835  0.1558042658226693
  0.9266517701608941  0.2801742069245776  0.6650108454173356
  0.1660217016009785  0.5132847056163570  0.2382371694650606
  0.2317727996726193  0.5213917400342515  0.6479398590304782
  0.4642629205051441  0.7432445193314383  0.1542134358058080
  0.4617842057801396  0.8086846520541850  0.6555578331333034
  0.7517360059211566  0.0783256035708426  0.2571830539662925
  0.7526898791556597  0.0175955701409956  0.6108126069282999
  0.2363544018816779  0.0186476325487665  0.3560475960156014
  0.7349400311516495  0.5180893116118166  0.3570000993072138
  0.7355580675529887  0.5812297281002132  0.7536152642561007
  0.9902319224861720  0.8297471007598858  0.2705753255073387
  0.9805444933558845  0.8423843022533301  0.7047969607978856
  0.2442645950239452  0.0816142047342484  0.7406431493758534
  0.4873890116868246  0.3398089937102265  0.2726959385957572
  0.4801717410783062  0.3302005006263874  0.7873078896084734
  0.9852383598238947  0.3370378499408469  0.2603547877055041
  0.9500314510939184  0.3003626930618343  0.8001229432418770
  0.2377447450106582  0.5859870461366793  0.2390593008308137
  0.2363049754051186  0.5862123691843767  0.7579839775832700
  0.4821142157139826  0.8292500278119943  0.2269205202198171
  0.5399554749320307  0.8316379219361905  0.7387702575249472
  0.7541068398376218  0.0223684927050960  0.3735376224275889
  0.7536622369624150  0.0763423872104751  0.7271102455166762
  0.1672223972093471  0.0079366097808259  0.2547511520285678
  0.6704806990000426  0.5124713192742560  0.2489419453566626
  0.6662818795005649  0.5062394579078638  0.7483215237597235
  0.9184909484869078  0.7570201680540400  0.2665225331171393
  0.9071518287558975  0.7711542553439382  0.7038499346915172
  0.1686671379747247  0.0132368812250006  0.7497827451001655
  0.4136088002037326  0.2692273175659563  0.2735016447117249
  0.4180282428098915  0.2496189951532804  0.7943145179753744
  0.9147660202733350  0.2630919752074377  0.2631529178608378
  0.9158950071589930  0.2082732737899108  0.7620334243459266
  0.2277902612791177  0.5234420924658947  0.3486652458758884
  0.1639757522424091  0.5142745066206243  0.7541139256678310
  0.4134782988584800  0.7620758803779191  0.2751942643014899
  0.4522094043957108  0.7994487907269013  0.7960571122626066
  0.6823514675514474  0.0047278456070217  0.2778469400959717
  0.6821692049505435  0.0042920801558453  0.7119129227413072
  0.3335324427430779  0.9831371732901624  0.2263663454694664
  0.8367507969370894  0.4822024595979088  0.2357128365131312
  0.8334951343180004  0.4869357999705695  0.7677475456150625
  0.0854779997860171  0.7315221807533083  0.2679673302996279
  0.0640815978486891  0.7511312540135602  0.7833235827992918
  0.3339697587050842  0.9784146762040675  0.7554605567277444
  0.5798881073753583  0.2390938995433436  0.2762575608881599
  0.5535886784485560  0.2634675296252412  0.6533542462902330
  0.0818295659708970  0.2409102307474783  0.2799926705632997
  0.0607340615185550  0.2755810592204966  0.6824848941727092
  0.2753662199186622  0.4778627379640156  0.1308134865869134
  0.3304241186657918  0.4867597168445729  0.7701416307997324
  0.5801433011123847  0.7358149533405475  0.2555211180650031
  0.5577973288680480  0.7077420256354076  0.6595794599502630
  0.8487657190714138  0.9810366501312032  0.2455558151725581
  0.8484606688165791  0.9767830581413116  0.7329037648856609
  0.2678139799223265  0.9710984369507487  0.1338694670857469
  0.7767952195722683  0.4774523584597227  0.1354340103050337
  0.7689956778459345  0.4156348041298188  0.7603258439847020
  0.0182968763296798  0.6632463102138403  0.2643496491078518
  0.9959586452735768  0.6843309633198904  0.7824689226953179
  0.2621688216694197  0.9147318193924285  0.7661355453361092
  0.5106007863232158  0.1723757114346250  0.2762935209750911
  0.4959176847191957  0.1882167045038443  0.6596013192133869
  0.0151820647015907  0.1717584273421844  0.2822900698186448
  0.0308365454054929  0.1874501518721250  0.6623025893369267
  0.2656402524406740  0.4192309838624560  0.2318635980711108
  0.2622940729943229  0.4191479167415328  0.7669477421251641
  0.5152179956276162  0.6732697689304651  0.2999824483060359
  0.4733789026301841  0.6781878223826212  0.7000393221380786
  0.7817826073335624  0.9662887595082605  0.1546800752873799
  0.7804486496785842  0.9090410959129307  0.7211184440897278
  0.2672341023759202  0.9140617333252988  0.2371706975747214
  0.7672169966147029  0.4159825425615882  0.2333737360951005
  0.7685808724645603  0.4753307378760725  0.8635558738140926
  0.0261071134260884  0.7196880495205704  0.3697480577960160
  0.9855989621619814  0.7625958589898097  0.8581248673592984
  0.2751145589395677  0.9813439469753744  0.8594221315278865
  0.5200272445495548  0.2321206477525469  0.3784618284934904
  0.5481093734226206  0.2123254835164181  0.7652202230201551
  0.0190275705268325  0.2367222220243660  0.3791356721272656
  0.0538741644055436  0.2150788495850317  0.7846177377356665
  0.3331356453187199  0.4874309463303753  0.2328063479562826
  0.2665947613156470  0.4802445694357127  0.8682525709289443
  0.5334376502200281  0.7549784355914805  0.3666433319862743
  0.5404707675387693  0.6974581052646696  0.7893778919077356
  0.7825913937537731  0.9121639507769382  0.2615400099347274
  0.7825109610009719  0.9653796022497757  0.8276733130777936
  0.2368926774736286  0.7630558385620745  0.5022989304769719
  0.7378968421026344  0.2634576723097854  0.4949506860639853
  0.7181005375151068  0.2747578578882647  0.9923752725989780
  0.9839759228624693  0.5105095609607920  0.5021348161022705
  0.9890920191152104  0.5110344304575585  0.9991407259039123
  0.2347051030109807  0.7598338693029236  0.9993662612899854
  0.4842321455136058  0.0101102188666423  0.4894595204708168
  0.4726890571677608  0.0303197867505799  0.9876083039119162
  0.9905508827753863  0.0101857822796963  0.4894659993788356
  0.9968024377583981  0.0119629250331481  0.9887578652383090
  0.2404983416231131  0.2667092816250616  0.4999487909452598
  0.2294630166275734  0.2659644419830125  0.9971723301437166
  0.4803319525239070  0.5103149138233958  0.5000131791086606
  0.4838874863625507  0.5181747286989105 -0.0009916593252307
  0.7396329971792276  0.7586045902159991  0.4879046580974826
  0.7414069884489545  0.7520849919657976  0.9867549476069010
  0.2307587997112079  0.7692503076489809  0.2470499920978325
  0.7208696475656422  0.2746296148149798  0.2442280063371156
  0.7290991120439605  0.2741321306358143  0.7449788137898904
  0.9807105530870172  0.5167005052356652  0.2474782848472208
  0.9714989760805566  0.5377599999420317  0.7505825594199621
  0.2092054615728349  0.7776794211159568  0.7497690307293307
  0.4733968896864840  0.0319322715802402  0.2389509569821389
  0.4767415996379178  0.0195107866722124  0.7397158328041771
  0.9836914472936533  0.0299830120417276  0.2375132606455992
  0.9839130528576127  0.0228446767081945  0.7389090166598845
  0.2223480454651012  0.2765497553175356  0.2487424448929750
  0.2318985821016216  0.2771774967419274  0.7490033141840311
  0.4761060626817802  0.5306278308781519  0.2493457845120140
  0.4723118043807237  0.5144948435569363  0.7495765617175255
  0.7272538355780438  0.7716463054379509  0.2330689653978731
  0.7287915948951466  0.7710330748926788  0.7356776663931115
  0.3766806731109437  0.8742310694651132  0.9936171816552356
  0.8746715222423940  0.3694875444360624  0.9975930976796626
  0.8341700573545918  0.4134238185407380  0.4968180010947311
  0.0823123732207236  0.6649413675144431  0.0136115762133219
  0.1213435656785082  0.6263238682580311  0.5013786322355201
  0.3362412026190932  0.9126168113215830  0.4935911010906280
  0.5585509578189765  0.1906818401145876  0.9764465101293025
  0.6246295993519455  0.1237077972430795  0.4957100948650764
  0.0716693993058206  0.1757384318626523  0.9805322083667233
  0.1254734090443542  0.1270870596860610  0.5018036014755176
  0.3756328487096289  0.3729560648323235  0.0034513335064053
  0.3273442294201131  0.4217341055424821  0.4923161013382156
  0.5776430339584023  0.6735094017653276  0.9819086598604956
  0.6217187893805766  0.6246776359338039  0.5017906324206940
  0.8901195509290740  0.8606857018404386  0.9740262368194899
  0.8493754634144979  0.9004003925341755  0.4856563226473011
  0.0938731642054353  0.8703253181578050  0.4738460564480130
  0.5819288818789831  0.3620844407432710  0.5039961102581287
  0.6431889594711615  0.4328845442540536  0.0005103642299166
  0.8791917553354209  0.6551777170790251  0.4736488557518440
  0.8281746511595889  0.6044781580648508 -0.0007782504363736
  0.1439461134429729  0.9235566300655850  0.0004274171556593
  0.3876262261850866  0.1670082186171528  0.5008776655541710
  0.3171464116243166  0.1070528387793750  0.9931466817459250
  0.8801777787049406  0.1576864835692848  0.4858940211887186
  0.8375042851772947  0.1272465083296982  0.9931791474284642
  0.0828092258903334  0.3616594851552041  0.5132581005818655
  0.1414359923822520  0.4221191772436654  0.9992730957796903
  0.3860480181796431  0.6653118414737338  0.5113214061769903
  0.3285963726377441  0.6103073892836899  0.9976782871581525
  0.5918958885507090  0.8692999316765744  0.4783215371311988
  0.6042418316712665  0.8919505460897682  0.9907814064335695
  0.7137226426489386  0.0142662213321267  0.9936445375780493
 
  0.00000000E+00  0.00000000E+00  0.00000000E+00
  0.00000000E+00  0.00000000E+00  0.00000000E+00
  0.00000000E+00  0.00000000E+00  0.00000000E+00
  0.00000000E+00  0.00000000E+00  0.00000000E+00
  0.00000000E+00  0.00000000E+00  0.00000000E+00
  0.00000000E+00  0.00000000E+00  0.00000000E+00
  0.00000000E+00  0.00000000E+00  0.00000000E+00
  0.00000000E+00  0.00000000E+00  0.00000000E+00
  0.00000000E+00  0.00000000E+00  0.00000000E+00
  0.00000000E+00  0.00000000E+00  0.00000000E+00
  0.00000000E+00  0.00000000E+00  0.00000000E+00
  0.00000000E+00  0.00000000E+00  0.00000000E+00
  0.00000000E+00  0.00000000E+00  0.00000000E+00
  0.00000000E+00  0.00000000E+00  0.00000000E+00
  0.00000000E+00  0.00000000E+00  0.00000000E+00
  0.00000000E+00  0.00000000E+00  0.00000000E+00
  0.00000000E+00  0.00000000E+00  0.00000000E+00
  0.00000000E+00  0.00000000E+00  0.00000000E+00
  0.00000000E+00  0.00000000E+00  0.00000000E+00
  0.00000000E+00  0.00000000E+00  0.00000000E+00
  0.00000000E+00  0.00000000E+00  0.00000000E+00
  0.00000000E+00  0.00000000E+00  0.00000000E+00
  0.00000000E+00  0.00000000E+00  0.00000000E+00
  0.00000000E+00  0.00000000E+00  0.00000000E+00
  0.00000000E+00  0.00000000E+00  0.00000000E+00
  0.00000000E+00  0.00000000E+00  0.00000000E+00
  0.00000000E+00  0.00000000E+00  0.00000000E+00
  0.00000000E+00  0.00000000E+00  0.00000000E+00
  0.00000000E+00  0.00000000E+00  0.00000000E+00
  0.00000000E+00  0.00000000E+00  0.00000000E+00
  0.00000000E+00  0.00000000E+00  0.00000000E+00
  0.00000000E+00  0.00000000E+00  0.00000000E+00
  0.00000000E+00  0.00000000E+00  0.00000000E+00
  0.00000000E+00  0.00000000E+00  0.00000000E+00
  0.00000000E+00  0.00000000E+00  0.00000000E+00
  0.00000000E+00  0.00000000E+00  0.00000000E+00
  0.00000000E+00  0.00000000E+00  0.00000000E+00
  0.00000000E+00  0.00000000E+00  0.00000000E+00
  0.00000000E+00  0.00000000E+00  0.00000000E+00
  0.00000000E+00  0.00000000E+00  0.00000000E+00
  0.00000000E+00  0.00000000E+00  0.00000000E+00
  0.00000000E+00  0.00000000E+00  0.00000000E+00
  0.00000000E+00  0.00000000E+00  0.00000000E+00
  0.00000000E+00  0.00000000E+00  0.00000000E+00
  0.00000000E+00  0.00000000E+00  0.00000000E+00
  0.00000000E+00  0.00000000E+00  0.00000000E+00
  0.00000000E+00  0.00000000E+00  0.00000000E+00
  0.00000000E+00  0.00000000E+00  0.00000000E+00
  0.00000000E+00  0.00000000E+00  0.00000000E+00
  0.00000000E+00  0.00000000E+00  0.00000000E+00
  0.00000000E+00  0.00000000E+00  0.00000000E+00
  0.00000000E+00  0.00000000E+00  0.00000000E+00
  0.00000000E+00  0.00000000E+00  0.00000000E+00
  0.00000000E+00  0.00000000E+00  0.00000000E+00
  0.00000000E+00  0.00000000E+00  0.00000000E+00
  0.00000000E+00  0.00000000E+00  0.00000000E+00
  0.00000000E+00  0.00000000E+00  0.00000000E+00
  0.00000000E+00  0.00000000E+00  0.00000000E+00
  0.00000000E+00  0.00000000E+00  0.00000000E+00
  0.00000000E+00  0.00000000E+00  0.00000000E+00
  0.00000000E+00  0.00000000E+00  0.00000000E+00
  0.00000000E+00  0.00000000E+00  0.00000000E+00
  0.00000000E+00  0.00000000E+00  0.00000000E+00
  0.00000000E+00  0.00000000E+00  0.00000000E+00
  0.00000000E+00  0.00000000E+00  0.00000000E+00
  0.00000000E+00  0.00000000E+00  0.00000000E+00
  0.00000000E+00  0.00000000E+00  0.00000000E+00
  0.00000000E+00  0.00000000E+00  0.00000000E+00
  0.00000000E+00  0.00000000E+00  0.00000000E+00
  0.00000000E+00  0.00000000E+00  0.00000000E+00
  0.00000000E+00  0.00000000E+00  0.00000000E+00
  0.00000000E+00  0.00000000E+00  0.00000000E+00
  0.00000000E+00  0.00000000E+00  0.00000000E+00
  0.00000000E+00  0.00000000E+00  0.00000000E+00
  0.00000000E+00  0.00000000E+00  0.00000000E+00
  0.00000000E+00  0.00000000E+00  0.00000000E+00
  0.00000000E+00  0.00000000E+00  0.00000000E+00
  0.00000000E+00  0.00000000E+00  0.00000000E+00
  0.00000000E+00  0.00000000E+00  0.00000000E+00
  0.00000000E+00  0.00000000E+00  0.00000000E+00
  0.00000000E+00  0.00000000E+00  0.00000000E+00
  0.00000000E+00  0.00000000E+00  0.00000000E+00
  0.00000000E+00  0.00000000E+00  0.00000000E+00
  0.00000000E+00  0.00000000E+00  0.00000000E+00
  0.00000000E+00  0.00000000E+00  0.00000000E+00
  0.00000000E+00  0.00000000E+00  0.00000000E+00
  0.00000000E+00  0.00000000E+00  0.00000000E+00
  0.00000000E+00  0.00000000E+00  0.00000000E+00
  0.00000000E+00  0.00000000E+00  0.00000000E+00
  0.00000000E+00  0.00000000E+00  0.00000000E+00
  0.00000000E+00  0.00000000E+00  0.00000000E+00
  0.00000000E+00  0.00000000E+00  0.00000000E+00
  0.00000000E+00  0.00000000E+00  0.00000000E+00
  0.00000000E+00  0.00000000E+00  0.00000000E+00
  0.00000000E+00  0.00000000E+00  0.00000000E+00
  0.00000000E+00  0.00000000E+00  0.00000000E+00
  0.00000000E+00  0.00000000E+00  0.00000000E+00
  0.00000000E+00  0.00000000E+00  0.00000000E+00
  0.00000000E+00  0.00000000E+00  0.00000000E+00
  0.00000000E+00  0.00000000E+00  0.00000000E+00
  0.00000000E+00  0.00000000E+00  0.00000000E+00
  0.00000000E+00  0.00000000E+00  0.00000000E+00
  0.00000000E+00  0.00000000E+00  0.00000000E+00
  0.00000000E+00  0.00000000E+00  0.00000000E+00
  0.00000000E+00  0.00000000E+00  0.00000000E+00
  0.00000000E+00  0.00000000E+00  0.00000000E+00
  0.00000000E+00  0.00000000E+00  0.00000000E+00
  0.00000000E+00  0.00000000E+00  0.00000000E+00
  0.00000000E+00  0.00000000E+00  0.00000000E+00
  0.00000000E+00  0.00000000E+00  0.00000000E+00
  0.00000000E+00  0.00000000E+00  0.00000000E+00
  0.00000000E+00  0.00000000E+00  0.00000000E+00
  0.00000000E+00  0.00000000E+00  0.00000000E+00
  0.00000000E+00  0.00000000E+00  0.00000000E+00
  0.00000000E+00  0.00000000E+00  0.00000000E+00
  0.00000000E+00  0.00000000E+00  0.00000000E+00
  0.00000000E+00  0.00000000E+00  0.00000000E+00
  0.00000000E+00  0.00000000E+00  0.00000000E+00
  0.00000000E+00  0.00000000E+00  0.00000000E+00
  0.00000000E+00  0.00000000E+00  0.00000000E+00
  0.00000000E+00  0.00000000E+00  0.00000000E+00
  0.00000000E+00  0.00000000E+00  0.00000000E+00
  0.00000000E+00  0.00000000E+00  0.00000000E+00
  0.00000000E+00  0.00000000E+00  0.00000000E+00
  0.00000000E+00  0.00000000E+00  0.00000000E+00
  0.00000000E+00  0.00000000E+00  0.00000000E+00
  0.00000000E+00  0.00000000E+00  0.00000000E+00
  0.00000000E+00  0.00000000E+00  0.00000000E+00
  0.00000000E+00  0.00000000E+00  0.00000000E+00
  0.00000000E+00  0.00000000E+00  0.00000000E+00
  0.00000000E+00  0.00000000E+00  0.00000000E+00
  0.00000000E+00  0.00000000E+00  0.00000000E+00
  0.00000000E+00  0.00000000E+00  0.00000000E+00
  0.00000000E+00  0.00000000E+00  0.00000000E+00
  0.00000000E+00  0.00000000E+00  0.00000000E+00
  0.00000000E+00  0.00000000E+00  0.00000000E+00
  0.00000000E+00  0.00000000E+00  0.00000000E+00
  0.00000000E+00  0.00000000E+00  0.00000000E+00
  0.00000000E+00  0.00000000E+00  0.00000000E+00
  0.00000000E+00  0.00000000E+00  0.00000000E+00
  0.00000000E+00  0.00000000E+00  0.00000000E+00
  0.00000000E+00  0.00000000E+00  0.00000000E+00
  0.00000000E+00  0.00000000E+00  0.00000000E+00
  0.00000000E+00  0.00000000E+00  0.00000000E+00
  0.00000000E+00  0.00000000E+00  0.00000000E+00
  0.00000000E+00  0.00000000E+00  0.00000000E+00
  0.00000000E+00  0.00000000E+00  0.00000000E+00
  0.00000000E+00  0.00000000E+00  0.00000000E+00
  0.00000000E+00  0.00000000E+00  0.00000000E+00
  0.00000000E+00  0.00000000E+00  0.00000000E+00
  0.00000000E+00  0.00000000E+00  0.00000000E+00
  0.00000000E+00  0.00000000E+00  0.00000000E+00
  0.00000000E+00  0.00000000E+00  0.00000000E+00
  0.00000000E+00  0.00000000E+00  0.00000000E+00
  0.00000000E+00  0.00000000E+00  0.00000000E+00
  0.00000000E+00  0.00000000E+00  0.00000000E+00
  0.00000000E+00  0.00000000E+00  0.00000000E+00
  0.00000000E+00  0.00000000E+00  0.00000000E+00
  0.00000000E+00  0.00000000E+00  0.00000000E+00
  0.00000000E+00  0.00000000E+00  0.00000000E+00
  0.00000000E+00  0.00000000E+00  0.00000000E+00
  0.00000000E+00  0.00000000E+00  0.00000000E+00
  0.00000000E+00  0.00000000E+00  0.00000000E+00
  0.00000000E+00  0.00000000E+00  0.00000000E+00
  0.00000000E+00  0.00000000E+00  0.00000000E+00
  0.00000000E+00  0.00000000E+00  0.00000000E+00
  0.00000000E+00  0.00000000E+00  0.00000000E+00
  0.00000000E+00  0.00000000E+00  0.00000000E+00
  0.00000000E+00  0.00000000E+00  0.00000000E+00
  0.00000000E+00  0.00000000E+00  0.00000000E+00
  0.00000000E+00  0.00000000E+00  0.00000000E+00
  0.00000000E+00  0.00000000E+00  0.00000000E+00
  0.00000000E+00  0.00000000E+00  0.00000000E+00
  0.00000000E+00  0.00000000E+00  0.00000000E+00
  0.00000000E+00  0.00000000E+00  0.00000000E+00
  0.00000000E+00  0.00000000E+00  0.00000000E+00
  0.00000000E+00  0.00000000E+00  0.00000000E+00
  0.00000000E+00  0.00000000E+00  0.00000000E+00
  0.00000000E+00  0.00000000E+00  0.00000000E+00
  0.00000000E+00  0.00000000E+00  0.00000000E+00
  0.00000000E+00  0.00000000E+00  0.00000000E+00
  0.00000000E+00  0.00000000E+00  0.00000000E+00
  0.00000000E+00  0.00000000E+00  0.00000000E+00
  0.00000000E+00  0.00000000E+00  0.00000000E+00
  0.00000000E+00  0.00000000E+00  0.00000000E+00
  0.00000000E+00  0.00000000E+00  0.00000000E+00
  0.00000000E+00  0.00000000E+00  0.00000000E+00
  0.00000000E+00  0.00000000E+00  0.00000000E+00
  0.00000000E+00  0.00000000E+00  0.00000000E+00
  0.00000000E+00  0.00000000E+00  0.00000000E+00
  0.00000000E+00  0.00000000E+00  0.00000000E+00
  0.00000000E+00  0.00000000E+00  0.00000000E+00
  0.00000000E+00  0.00000000E+00  0.00000000E+00
