                                        
   1.0000000000000000     
     8.5440949620013917    0.0000000000000000    0.0000000000000000
     0.0000000000000000    8.5440949620013917    0.0000000000000000
    -0.0000000000000000    0.0000000000000000    6.2057422488481180
   Cs   I    Sn
     2     6     2
Direct
  0.5000000000000000  0.0000000000000000  0.0000000000000000
 -0.0000000000000000  0.5000000000000000  0.0000000000000000
 -0.0000000000000000  0.0000000000000000  0.0000000000000000
  0.5000000000000000  0.5000000000000000  0.0000000000000000
  0.8032171052222449  0.3032171052222449  0.5000000000000000
  0.1967829097777529  0.6967828947777551  0.5000000000000000
  0.6967828947777551  0.8032171052222449  0.5000000000000000
  0.3032171052222449  0.1967829097777529  0.5000000000000000
 -0.0000000000000000  0.0000000000000000  0.5000000000000000
  0.5000000000000000  0.5000000000000000  0.5000000000000000

  0.00000000E+00  0.00000000E+00  0.00000000E+00
  0.00000000E+00  0.00000000E+00  0.00000000E+00
  0.00000000E+00  0.00000000E+00  0.00000000E+00
  0.00000000E+00  0.00000000E+00  0.00000000E+00
  0.00000000E+00  0.00000000E+00  0.00000000E+00
  0.00000000E+00  0.00000000E+00  0.00000000E+00
  0.00000000E+00  0.00000000E+00  0.00000000E+00
  0.00000000E+00  0.00000000E+00  0.00000000E+00
  0.00000000E+00  0.00000000E+00  0.00000000E+00
  0.00000000E+00  0.00000000E+00  0.00000000E+00
