MA-Pb-I  Phonons/2015_MAPbI3/MAPbI3-Cubi
   1.00000000000000     
    17.7132244109999988    0.0000000000000000    0.0000000000000000
    -0.1426931695000000   17.7112591496999983    0.0000000000000000
     0.1968164558000000   -0.1964737486000000   12.7543833320999997
   C    N    H    Pb   I 
    16    16    96    16    49
Direct
  0.2227848279817101  0.0259526911032273  0.2642623240319342
  0.7048182704704129  0.5006492947976524  0.2548272320741970
  0.7244918315518946  0.5228715585952903  0.7339367006879961
  0.9727026123028925  0.7756283999118850  0.2408111082804991
  0.9970765873759504  0.7731244995170331  0.7278184358028882
  0.2246445403991718  0.0262098856592736  0.7318038284765648
  0.4801880383366831  0.2747991874803257  0.2237784615219995
  0.4804572736968205  0.2767464108461122  0.7695878682710642
  0.9777109884367478  0.2799806614993604  0.2369257606629627
  0.9544488312441609  0.2677506306816514  0.7511057913398814
  0.2258479408092176  0.5302310834936179  0.2581467765849693
  0.2218613514085996  0.5275164178961059  0.7327005689927134
  0.4652530246374756  0.7592470041077222  0.2368595557041607
  0.4486540680830044  0.7563810626062416  0.7539473474593572
  0.7656293270385615  0.0587029290651682  0.2567006155092352
  0.7470360761277548  0.0291135396555836  0.7080548867552610
  0.2722919051591559  0.9728974784717108  0.2053966608715167
  0.7825212771967183  0.4914861902885999  0.2122732373404639
  0.7770114228046827  0.4794348631718240  0.7985948600053939
  0.0259018090976035  0.7234517305182027  0.2902880869435359
  0.9548921483479594  0.7160907197156475  0.7894341516506099
  0.2766293590620046  0.9786354684138945  0.7913253588919179
  0.5288973135408154  0.2244671825685045  0.2843099539808179
  0.5306675621485787  0.2262328479437948  0.7073682210995510
  0.0298762463159860  0.2327455264852819  0.2967904068753171
  0.0240428860056835  0.2307807080516417  0.7112932718271334
  0.2759044987984475  0.4750880230824616  0.2039953544284864
  0.2687787728265227  0.4731643330904295  0.7892277518882319
  0.5276387920693612  0.7237994156822302  0.2938892978068459
  0.5233101600617817  0.7298615403864822  0.7157434196536593
  0.7863146966541980  0.9797926733925698  0.2308977849189488
  0.7917328189533234  0.9748326055025714  0.7681893391332610
  0.2369753751891391  0.0838216467785926  0.2403478541838281
  0.6653354837173184  0.4994842987092860  0.1891630855574035
  0.7283294661429204  0.5020348752716617  0.6524160724511199
  0.9817250550864686  0.7732086127595885  0.1553880789164689
  0.0578387117083751  0.7609970456354822  0.7300778926518284
  0.2320450913235738  0.0134542473922155  0.6476718226959410
  0.4884851596449123  0.2623276840878481  0.1397343087265989
  0.4215749889266875  0.2648003813794639  0.7482518253600133
  0.9846034551380983  0.2665706809303607  0.1528940606847304
  0.9214100122634727  0.2859151722615585  0.6839139069496811
  0.1669217587285352  0.5167456027680113  0.2386802614151610
  0.2378503565781117  0.5259740586171290  0.6490959445834390
  0.4671485430139638  0.7396727922180398  0.1546419184462407
  0.4122186911808887  0.7647711183363922  0.6862707541341461
  0.7429573719438352  0.0850277221452542  0.1865263258723728
  0.7547923864444270  0.0167422027927964  0.6239027567659907
  0.2322666345263440  0.0195309662764189  0.3485857225392572
  0.7013867001983998  0.5548524632970654  0.2977618931481819
  0.7405006330872305  0.5829950340939962  0.7378025896899427
  0.9836153637884133  0.8330806511826160  0.2711079909986548
  0.9863920699902415  0.8294577265072436  0.7620660389409113
  0.2381999999732534  0.0859379678606099  0.7479554473516085
  0.4957781252424927  0.3338546743404794  0.2411400731613778
  0.4949867298527020  0.3357658089395048  0.7521811012087298
  0.9913113190314004  0.3398742763953762  0.2516861774951697
  0.9700402847500036  0.3165449445844445  0.8006649607710943
  0.2406182114624120  0.5872212446019636  0.2311303765778968
  0.2315328524473844  0.5843930553563166  0.7658537784868296
  0.4725777875470678  0.8208824991606838  0.2404323120164653
  0.4565301733294225  0.8094836483423612  0.7983408089519825
  0.8163577437644807  0.0896480883053729  0.2822082478768944
  0.7671647188218383  0.0865969581080223  0.7266495390315825
  0.1635452655702802  0.0129169199736326  0.2460881143101918
  0.6919739589575618  0.4537440754498350  0.3078531140511097
  0.6667642895448519  0.5151294042236113  0.7650671153790433
  0.9145662933091412  0.7580740190255914  0.2606743264064972
  0.9776998580862764  0.7705923084345678  0.6463680368573568
  0.1662201196900761  0.0137192254610754  0.7567530065027783
  0.4209367681120599  0.2644453989350165  0.2466246377650711
  0.4883959181014721  0.2660409256140453  0.8533008199089884
  0.9194129961128443  0.2678947146292852  0.2628060286465043
  0.9215263668968421  0.2270836817238310  0.7978025627280690
  0.2338790545701995  0.5265937649550517  0.3431780796586678
  0.1620813516850927  0.5115170772533013  0.7425107754007026
  0.4114729519758781  0.7426249997635953  0.2744184684818776
  0.4236767492254983  0.7133312759273058  0.8054545475767375
  0.7230467624965410  0.0588700644464925  0.3204314037309612
  0.6871878908325957  0.0229578764089486  0.7305727889127378
  0.3293965394006852  0.9851909411485379  0.2189991127625628
  0.7981926967557785  0.5356055317629562  0.1621049111481020
  0.8327440604005709  0.4838523431293481  0.7705992083584536
  0.0822304279299226  0.7379869455724045  0.2738444666962289
  0.9740696458689788  0.7140443860312480  0.8662953056785876
  0.3330788279640568  0.9894953971815638  0.7699753093233341
  0.5860323080053811  0.2321486639473656  0.2647053442729940
  0.5251405046136242  0.2347424452192844  0.6273525496457563
  0.0863603141519084  0.2429136614977135  0.2751853427569541
  0.0555133258054442  0.2671710426022847  0.6632643546194202
  0.2692373228562211  0.4761997455995978  0.1231284935634246
  0.3261968457802527  0.4872260273041501  0.7837317773985560
  0.5807415204742191  0.7346437256765910  0.2600969851484394
  0.5489461171453131  0.7693896274189105  0.6661091191486346
  0.8269143937595824  0.9759447766383532  0.1712942359267684
  0.8492698580679821  0.9786032754844433  0.7477987519520918
  0.2643150914816180  0.9764865451309170  0.1250279977900410
  0.7886843570131317  0.4420097099188147  0.1677356330973530
  0.7622281829182085  0.4222810102063624  0.7996109551348105
  0.0173569542490951  0.6675106540389224  0.2653074167612548
  0.9614684947760287  0.6615358979667676  0.7583628638858767
  0.2654387670909973  0.9210322165742120  0.7793801167033062
  0.5143347283175373  0.1675340155282186  0.2714838816172950
  0.5176734313308076  0.1692875244579419  0.7210666326228533
  0.0186341253844149  0.1751061547678265  0.2849123234729598
  0.0118167694292089  0.1830602438830236  0.6660581005549412
  0.2641490456130204  0.4197044169460463  0.2267709752306515
  0.2620543859498171  0.4179356337786647  0.7602155878782912
  0.5202321539011989  0.6652693852750011  0.2954920052006176
  0.5191414208550136  0.6795006836712276  0.6731206430922630
  0.7387684521183515  0.9491719961757111  0.2056336481089693
  0.7740087367646383  0.9189864039869702  0.7569172332263878
  0.2617086992126355  0.9168384276558688  0.2257783673646951
  0.8218095552289885  0.4892356929116710  0.2718866985447240
  0.7780129264270704  0.5001135429213041  0.8756347353041286
  0.0193458076842279  0.7239208157852755  0.3714443573300385
  0.8967199058565447  0.7272911762927881  0.7903274958913035
  0.2722743285862195  0.9903387593412790  0.8714106209298030
  0.5234756342060912  0.2353360790963979  0.3644603994834589
  0.5874643689906670  0.2357757946888329  0.7247672600070357
  0.0257888782787167  0.2441497303284707  0.3769188038972274
  0.0572650147309143  0.2139438873884656  0.7736161726549027
  0.3328045161363770  0.4864556172916326  0.2187989275741001
  0.2531659863652096  0.4713958615858035  0.8683507144668727
  0.5302162924340628  0.7438733737057713  0.3710666545225321
  0.5584271666896959  0.7201960914863773  0.7790226796201216
  0.8073184042349050  0.9529824054036135  0.2971518093423859
  0.7888501148336254  0.9869824069984211  0.8482021795090349
  0.2375871909017084  0.7648375225505526  0.5016598727524529
  0.7387673182892344  0.2651896430860007  0.4914756805297169
  0.7322171515919246  0.2586299610784159  0.9930637087746284
  0.9852322673367945  0.5120148153409272  0.4960309823126031
  0.9864068271782147  0.5157874420057159  0.9980090400043715
  0.2339211713745047  0.7621544290322593  0.9964559282212352
  0.4815109615901744  0.0117652307472249  0.4978492350686983
  0.5122760986222706  0.9908544703657750  0.9993800936299817
  0.9886928589854495  0.0102546203697215  0.4866927590425122
  0.9914359515515471  0.0194257958604749  0.9882127197143220
  0.2431798677045019  0.2639856808029255  0.4959215516421093
  0.2356862811073057  0.2562641973250191  0.9926402214693852
  0.4791971746922072  0.5075424704577487  0.4972288100271728
  0.4859807111231111  0.5144086268330530  0.9933739494709094
  0.7371321049024679  0.7564164835897513  0.4912799956233492
  0.7098200210373835  0.7881027328186634  0.9973273707420911
  0.2246054196998881  0.7724446532101187  0.2464584364090678
  0.7255772374307793  0.2741794124264744  0.2422486637535997
  0.7282549133313257  0.2804959182399466  0.7430297230375174
  0.9883555710452285  0.5231246805760630  0.2466254667593841
  0.9739140787268119  0.5146194028959824  0.7455780411281686
  0.2293244892864087  0.7805130502106092  0.7481489827547213
  0.4610708998306703  0.0357773511825366  0.2487513607677402
  0.4670914277448862  0.0357412045466507  0.7459989415066897
  0.9862715918777719  0.0371768186045414  0.2371457494811331
  0.9858284327299965  0.0182579337695295  0.7360223011010610
  0.2254183572313054  0.2760216989156656  0.2438984571987750
  0.2349601314879286  0.2743400057139990  0.7428598531779869
  0.4759389892953300  0.5253472678476264  0.2446118085423971
  0.4654957304183944  0.5238518613588006  0.7446956291917931
  0.7336199889812862  0.7292877526467324  0.2474229266272269
  0.7650974600220267  0.7616426889715979  0.7446567765271948
  0.3777534518583300  0.8720933817271540  0.0017067324786723
  0.8754233698311550  0.3736464794411405  0.0077123287150224
  0.8308472084634770  0.4204141938396291  0.4801948888719582
  0.0764072356070118  0.6734661648573583  0.0015537131938903
  0.1240436718643859  0.6264996994735482  0.5017491035835906
  0.3310132715769815  0.9189768790990234  0.4922102910715497
  0.5896155488305145  0.1550822169703193  0.9908118306720510
  0.6291656771313355  0.1216363044099740  0.4967181283001191
  0.0747057337582755  0.1786115954101503  0.9738408335990030
  0.1271438026728546  0.1234822459007065  0.4988349475837659
  0.3770254040702226  0.3729446577441428  0.9979565546346947
  0.3239332446592169  0.4216323929315623  0.4886100432684717
  0.5768436796553529  0.6714204595578409  0.9762893376125411
  0.6230786145794968  0.6178260105785981  0.5138196702124871
  0.8707209124972956  0.8814769025442583  0.0014586519222103
  0.8384473951789240  0.9080230551672698  0.4758364120415491
  0.0873024622357662  0.8676144623143230  0.4811802103460792
  0.5780714270293886  0.3581567909929428  0.4938801945494799
  0.6299520410035679  0.4123574527834011  0.9863587685248419
  0.8883151555715187  0.6623064667869898  0.4934713879944366
  0.8339789660053499  0.6140163418835729  0.9986763496739269
  0.1391366316310712  0.9215856112482568  0.9985376348644019
  0.3953833617184809  0.1744293711860975  0.4985609809090295
  0.3251799214840849  0.1100097308837380  0.9990134220737442
  0.8873576668872004  0.1671183699193536  0.4959821120573013
  0.8330949448444361  0.1124175453368769  0.9758535264889727
  0.0841147250694900  0.3601910086781649  0.5113061113397513
  0.1399785089274679  0.4221603563156047  0.9968043309542464
  0.3831444911101762  0.6628880598730721  0.4924880588809256
  0.3282809114344273  0.6123528571279846  0.9974513907678441
  0.5803783546101561  0.8558827075444339  0.5061948067192649
  0.6138721855214491  0.8925693708920867  0.8504408965065604
  0.6166038643676438  0.8978636157546434  0.1496783973565982
 
  0.00000000E+00  0.00000000E+00  0.00000000E+00
  0.00000000E+00  0.00000000E+00  0.00000000E+00
  0.00000000E+00  0.00000000E+00  0.00000000E+00
  0.00000000E+00  0.00000000E+00  0.00000000E+00
  0.00000000E+00  0.00000000E+00  0.00000000E+00
  0.00000000E+00  0.00000000E+00  0.00000000E+00
  0.00000000E+00  0.00000000E+00  0.00000000E+00
  0.00000000E+00  0.00000000E+00  0.00000000E+00
  0.00000000E+00  0.00000000E+00  0.00000000E+00
  0.00000000E+00  0.00000000E+00  0.00000000E+00
  0.00000000E+00  0.00000000E+00  0.00000000E+00
  0.00000000E+00  0.00000000E+00  0.00000000E+00
  0.00000000E+00  0.00000000E+00  0.00000000E+00
  0.00000000E+00  0.00000000E+00  0.00000000E+00
  0.00000000E+00  0.00000000E+00  0.00000000E+00
  0.00000000E+00  0.00000000E+00  0.00000000E+00
  0.00000000E+00  0.00000000E+00  0.00000000E+00
  0.00000000E+00  0.00000000E+00  0.00000000E+00
  0.00000000E+00  0.00000000E+00  0.00000000E+00
  0.00000000E+00  0.00000000E+00  0.00000000E+00
  0.00000000E+00  0.00000000E+00  0.00000000E+00
  0.00000000E+00  0.00000000E+00  0.00000000E+00
  0.00000000E+00  0.00000000E+00  0.00000000E+00
  0.00000000E+00  0.00000000E+00  0.00000000E+00
  0.00000000E+00  0.00000000E+00  0.00000000E+00
  0.00000000E+00  0.00000000E+00  0.00000000E+00
  0.00000000E+00  0.00000000E+00  0.00000000E+00
  0.00000000E+00  0.00000000E+00  0.00000000E+00
  0.00000000E+00  0.00000000E+00  0.00000000E+00
  0.00000000E+00  0.00000000E+00  0.00000000E+00
  0.00000000E+00  0.00000000E+00  0.00000000E+00
  0.00000000E+00  0.00000000E+00  0.00000000E+00
  0.00000000E+00  0.00000000E+00  0.00000000E+00
  0.00000000E+00  0.00000000E+00  0.00000000E+00
  0.00000000E+00  0.00000000E+00  0.00000000E+00
  0.00000000E+00  0.00000000E+00  0.00000000E+00
  0.00000000E+00  0.00000000E+00  0.00000000E+00
  0.00000000E+00  0.00000000E+00  0.00000000E+00
  0.00000000E+00  0.00000000E+00  0.00000000E+00
  0.00000000E+00  0.00000000E+00  0.00000000E+00
  0.00000000E+00  0.00000000E+00  0.00000000E+00
  0.00000000E+00  0.00000000E+00  0.00000000E+00
  0.00000000E+00  0.00000000E+00  0.00000000E+00
  0.00000000E+00  0.00000000E+00  0.00000000E+00
  0.00000000E+00  0.00000000E+00  0.00000000E+00
  0.00000000E+00  0.00000000E+00  0.00000000E+00
  0.00000000E+00  0.00000000E+00  0.00000000E+00
  0.00000000E+00  0.00000000E+00  0.00000000E+00
  0.00000000E+00  0.00000000E+00  0.00000000E+00
  0.00000000E+00  0.00000000E+00  0.00000000E+00
  0.00000000E+00  0.00000000E+00  0.00000000E+00
  0.00000000E+00  0.00000000E+00  0.00000000E+00
  0.00000000E+00  0.00000000E+00  0.00000000E+00
  0.00000000E+00  0.00000000E+00  0.00000000E+00
  0.00000000E+00  0.00000000E+00  0.00000000E+00
  0.00000000E+00  0.00000000E+00  0.00000000E+00
  0.00000000E+00  0.00000000E+00  0.00000000E+00
  0.00000000E+00  0.00000000E+00  0.00000000E+00
  0.00000000E+00  0.00000000E+00  0.00000000E+00
  0.00000000E+00  0.00000000E+00  0.00000000E+00
  0.00000000E+00  0.00000000E+00  0.00000000E+00
  0.00000000E+00  0.00000000E+00  0.00000000E+00
  0.00000000E+00  0.00000000E+00  0.00000000E+00
  0.00000000E+00  0.00000000E+00  0.00000000E+00
  0.00000000E+00  0.00000000E+00  0.00000000E+00
  0.00000000E+00  0.00000000E+00  0.00000000E+00
  0.00000000E+00  0.00000000E+00  0.00000000E+00
  0.00000000E+00  0.00000000E+00  0.00000000E+00
  0.00000000E+00  0.00000000E+00  0.00000000E+00
  0.00000000E+00  0.00000000E+00  0.00000000E+00
  0.00000000E+00  0.00000000E+00  0.00000000E+00
  0.00000000E+00  0.00000000E+00  0.00000000E+00
  0.00000000E+00  0.00000000E+00  0.00000000E+00
  0.00000000E+00  0.00000000E+00  0.00000000E+00
  0.00000000E+00  0.00000000E+00  0.00000000E+00
  0.00000000E+00  0.00000000E+00  0.00000000E+00
  0.00000000E+00  0.00000000E+00  0.00000000E+00
  0.00000000E+00  0.00000000E+00  0.00000000E+00
  0.00000000E+00  0.00000000E+00  0.00000000E+00
  0.00000000E+00  0.00000000E+00  0.00000000E+00
  0.00000000E+00  0.00000000E+00  0.00000000E+00
  0.00000000E+00  0.00000000E+00  0.00000000E+00
  0.00000000E+00  0.00000000E+00  0.00000000E+00
  0.00000000E+00  0.00000000E+00  0.00000000E+00
  0.00000000E+00  0.00000000E+00  0.00000000E+00
  0.00000000E+00  0.00000000E+00  0.00000000E+00
  0.00000000E+00  0.00000000E+00  0.00000000E+00
  0.00000000E+00  0.00000000E+00  0.00000000E+00
  0.00000000E+00  0.00000000E+00  0.00000000E+00
  0.00000000E+00  0.00000000E+00  0.00000000E+00
  0.00000000E+00  0.00000000E+00  0.00000000E+00
  0.00000000E+00  0.00000000E+00  0.00000000E+00
  0.00000000E+00  0.00000000E+00  0.00000000E+00
  0.00000000E+00  0.00000000E+00  0.00000000E+00
  0.00000000E+00  0.00000000E+00  0.00000000E+00
  0.00000000E+00  0.00000000E+00  0.00000000E+00
  0.00000000E+00  0.00000000E+00  0.00000000E+00
  0.00000000E+00  0.00000000E+00  0.00000000E+00
  0.00000000E+00  0.00000000E+00  0.00000000E+00
  0.00000000E+00  0.00000000E+00  0.00000000E+00
  0.00000000E+00  0.00000000E+00  0.00000000E+00
  0.00000000E+00  0.00000000E+00  0.00000000E+00
  0.00000000E+00  0.00000000E+00  0.00000000E+00
  0.00000000E+00  0.00000000E+00  0.00000000E+00
  0.00000000E+00  0.00000000E+00  0.00000000E+00
  0.00000000E+00  0.00000000E+00  0.00000000E+00
  0.00000000E+00  0.00000000E+00  0.00000000E+00
  0.00000000E+00  0.00000000E+00  0.00000000E+00
  0.00000000E+00  0.00000000E+00  0.00000000E+00
  0.00000000E+00  0.00000000E+00  0.00000000E+00
  0.00000000E+00  0.00000000E+00  0.00000000E+00
  0.00000000E+00  0.00000000E+00  0.00000000E+00
  0.00000000E+00  0.00000000E+00  0.00000000E+00
  0.00000000E+00  0.00000000E+00  0.00000000E+00
  0.00000000E+00  0.00000000E+00  0.00000000E+00
  0.00000000E+00  0.00000000E+00  0.00000000E+00
  0.00000000E+00  0.00000000E+00  0.00000000E+00
  0.00000000E+00  0.00000000E+00  0.00000000E+00
  0.00000000E+00  0.00000000E+00  0.00000000E+00
  0.00000000E+00  0.00000000E+00  0.00000000E+00
  0.00000000E+00  0.00000000E+00  0.00000000E+00
  0.00000000E+00  0.00000000E+00  0.00000000E+00
  0.00000000E+00  0.00000000E+00  0.00000000E+00
  0.00000000E+00  0.00000000E+00  0.00000000E+00
  0.00000000E+00  0.00000000E+00  0.00000000E+00
  0.00000000E+00  0.00000000E+00  0.00000000E+00
  0.00000000E+00  0.00000000E+00  0.00000000E+00
  0.00000000E+00  0.00000000E+00  0.00000000E+00
  0.00000000E+00  0.00000000E+00  0.00000000E+00
  0.00000000E+00  0.00000000E+00  0.00000000E+00
  0.00000000E+00  0.00000000E+00  0.00000000E+00
  0.00000000E+00  0.00000000E+00  0.00000000E+00
  0.00000000E+00  0.00000000E+00  0.00000000E+00
  0.00000000E+00  0.00000000E+00  0.00000000E+00
  0.00000000E+00  0.00000000E+00  0.00000000E+00
  0.00000000E+00  0.00000000E+00  0.00000000E+00
  0.00000000E+00  0.00000000E+00  0.00000000E+00
  0.00000000E+00  0.00000000E+00  0.00000000E+00
  0.00000000E+00  0.00000000E+00  0.00000000E+00
  0.00000000E+00  0.00000000E+00  0.00000000E+00
  0.00000000E+00  0.00000000E+00  0.00000000E+00
  0.00000000E+00  0.00000000E+00  0.00000000E+00
  0.00000000E+00  0.00000000E+00  0.00000000E+00
  0.00000000E+00  0.00000000E+00  0.00000000E+00
  0.00000000E+00  0.00000000E+00  0.00000000E+00
  0.00000000E+00  0.00000000E+00  0.00000000E+00
  0.00000000E+00  0.00000000E+00  0.00000000E+00
  0.00000000E+00  0.00000000E+00  0.00000000E+00
  0.00000000E+00  0.00000000E+00  0.00000000E+00
  0.00000000E+00  0.00000000E+00  0.00000000E+00
  0.00000000E+00  0.00000000E+00  0.00000000E+00
  0.00000000E+00  0.00000000E+00  0.00000000E+00
  0.00000000E+00  0.00000000E+00  0.00000000E+00
  0.00000000E+00  0.00000000E+00  0.00000000E+00
  0.00000000E+00  0.00000000E+00  0.00000000E+00
  0.00000000E+00  0.00000000E+00  0.00000000E+00
  0.00000000E+00  0.00000000E+00  0.00000000E+00
  0.00000000E+00  0.00000000E+00  0.00000000E+00
  0.00000000E+00  0.00000000E+00  0.00000000E+00
  0.00000000E+00  0.00000000E+00  0.00000000E+00
  0.00000000E+00  0.00000000E+00  0.00000000E+00
  0.00000000E+00  0.00000000E+00  0.00000000E+00
  0.00000000E+00  0.00000000E+00  0.00000000E+00
  0.00000000E+00  0.00000000E+00  0.00000000E+00
  0.00000000E+00  0.00000000E+00  0.00000000E+00
  0.00000000E+00  0.00000000E+00  0.00000000E+00
  0.00000000E+00  0.00000000E+00  0.00000000E+00
  0.00000000E+00  0.00000000E+00  0.00000000E+00
  0.00000000E+00  0.00000000E+00  0.00000000E+00
  0.00000000E+00  0.00000000E+00  0.00000000E+00
  0.00000000E+00  0.00000000E+00  0.00000000E+00
  0.00000000E+00  0.00000000E+00  0.00000000E+00
  0.00000000E+00  0.00000000E+00  0.00000000E+00
  0.00000000E+00  0.00000000E+00  0.00000000E+00
  0.00000000E+00  0.00000000E+00  0.00000000E+00
  0.00000000E+00  0.00000000E+00  0.00000000E+00
  0.00000000E+00  0.00000000E+00  0.00000000E+00
  0.00000000E+00  0.00000000E+00  0.00000000E+00
  0.00000000E+00  0.00000000E+00  0.00000000E+00
  0.00000000E+00  0.00000000E+00  0.00000000E+00
  0.00000000E+00  0.00000000E+00  0.00000000E+00
  0.00000000E+00  0.00000000E+00  0.00000000E+00
  0.00000000E+00  0.00000000E+00  0.00000000E+00
  0.00000000E+00  0.00000000E+00  0.00000000E+00
  0.00000000E+00  0.00000000E+00  0.00000000E+00
  0.00000000E+00  0.00000000E+00  0.00000000E+00
  0.00000000E+00  0.00000000E+00  0.00000000E+00
  0.00000000E+00  0.00000000E+00  0.00000000E+00
  0.00000000E+00  0.00000000E+00  0.00000000E+00
  0.00000000E+00  0.00000000E+00  0.00000000E+00
  0.00000000E+00  0.00000000E+00  0.00000000E+00
  0.00000000E+00  0.00000000E+00  0.00000000E+00
  0.00000000E+00  0.00000000E+00  0.00000000E+00
