MA-Pb-I  Phonons/2015_MAPbI3/MAPbI3-Cubi
   1.00000000000000     
    17.7132244109999988    0.0000000000000000    0.0000000000000000
    -0.1426931695000000   17.7112591496999983    0.0000000000000000
     0.1968164558000000   -0.1964737486000000   12.7543833320999997
   C    N    H    Pb   I 
    16    16    96    16    49
Direct
  0.2267603771260370  0.0228465747296874  0.2662852301021444
  0.7293877913955206  0.5250186163692533  0.2684867204053238
  0.7245416955664867  0.5223915045824428  0.7337817296487287
  0.9763031879872326  0.7732573301751414  0.2406734281143564
  0.9693633162847123  0.7812244789982200  0.7006531712609466
  0.2281615878877056  0.0230547063972697  0.7282663358993235
  0.4719505684856325  0.2844685787982887  0.2519071498324550
  0.4543258286196620  0.2816358860715464  0.7414812974224253
  0.9729866261053366  0.2754105815387801  0.2365262420455739
  0.9512265953473418  0.2573172402521228  0.7389912468746538
  0.2234255282626396  0.5279077503274393  0.2590538711386104
  0.2224332661439626  0.5288602015467375  0.7352635977333261
  0.4652355618716801  0.7613295252429589  0.2256631509385352
  0.4911128836330558  0.7916213031881314  0.7310590991081349
  0.7405999762128868  0.0268832968817548  0.2827300088812004
  0.7382699341060300  0.0242231837485973  0.7024677306634239
  0.2766193886691495  0.9697083008182619  0.2079121001052863
  0.7809787859143341  0.4717936609786004  0.2134006298808211
  0.7774146555105574  0.4721116098808241  0.7874725008698024
  0.0293199958116127  0.7190283012484576  0.2862440234133597
  0.0051445651808780  0.7434134577506502  0.7898120402385290
  0.2791939391832209  0.9717061263090098  0.7833855317505689
  0.5248229657947836  0.2306230540080310  0.2985476522645819
  0.5169843477837883  0.2328776191990897  0.7045703417329524
  0.0251241142008291  0.2263656367653988  0.2937800577051411
  0.0291972523205453  0.2307459493574438  0.7186760182502308
  0.2771114680643600  0.4746066060829927  0.2082305360717277
  0.2722376143408383  0.4760893614229355  0.7899832756785002
  0.5296015929826390  0.7313517546532072  0.2845201680544372
  0.5198210488013992  0.7133503992372499  0.7242015048942062
  0.7858240529893994  0.9735483614664302  0.2173708052412974
  0.7847623594528051  0.9731865264169153  0.7653321988523024
  0.2368931479930667  0.0801438053377916  0.2369167824044893
  0.7450830913735076  0.5829751930954791  0.2467500595835875
  0.7332797734961523  0.5161180534725366  0.6485939228445047
  0.9823723259688313  0.7708031439248807  0.1547906714172874
  0.9927725523488068  0.7578194298715962  0.6269083907762250
  0.2325638603457698  0.0113383094825496  0.6435193818908052
  0.4741627809373116  0.2777821614486790  0.1660507637755436
  0.4223599154121921  0.2995837351006102  0.6731042337202228
  0.9806202427097133  0.2651374807372531  0.1518163329427819
  0.9291991953202743  0.2809394019157834  0.6665049951801769
  0.1658702411927594  0.5129628018270981  0.2345362966455993
  0.2323696137480978  0.5229129260126436  0.6502707611531220
  0.4601223450477229  0.7295939691861881  0.1513064383412095
  0.4606245100804008  0.8036391795693772  0.6588426645734859
  0.7522750734850069  0.0847110582543487  0.2564757993224721
  0.7527762680345690  0.0158241880901677  0.6190535185181629
  0.2397683427905581  0.0205345636036919  0.3501513536298639
  0.7349225858250571  0.5180348256068865  0.3534919794846704
  0.7358237151472344  0.5810574781390038  0.7586948923643806
  0.9902111644249006  0.8301933844222613  0.2704995462932265
  0.9814785443580679  0.8421607349841518  0.7059190272739747
  0.2451788575784783  0.0817439455402496  0.7454056907891159
  0.4888427768336850  0.3422255073421347  0.2747859600304408
  0.4777837653694844  0.3311120129494994  0.7829884837194183
  0.9858550577629742  0.3347905408814874  0.2560653205989873
  0.9519362271071179  0.3003537596420625  0.8020613382905087
  0.2377127429648496  0.5855342621360441  0.2341502829466330
  0.2355118647497120  0.5868961611403711  0.7613679399471058
  0.4756811095825538  0.8212856321544200  0.2094346432417392
  0.5392457085333745  0.8306326046650216  0.7393502691282811
  0.7564915467053277  0.0210945986831048  0.3651032126858044
  0.7499599588808592  0.0829725323508965  0.7266604628373318
  0.1676430154090030  0.0059881073776944  0.2538132625240853
  0.6711749101603194  0.5124369036833538  0.2445984674574067
  0.6663611219643985  0.5062484260028075  0.7554946792726632
  0.9184211059740095  0.7575778952742841  0.2645995629054719
  0.9080408310228357  0.7711002553738460  0.7045581393540785
  0.1699407926318224  0.0131072066097250  0.7562073076312041
  0.4145990238661963  0.2722798874776586  0.2816333213221135
  0.4174939276400792  0.2494817558305863  0.7949356207877751
  0.9146702531799858  0.2615472405981629  0.2605289204523767
  0.9160068289585795  0.2091919925642470  0.7636801604864270
  0.2279439281205489  0.5236802774846989  0.3445983155774415
  0.1632956638831493  0.5149729477025781  0.7547257046575998
  0.4134243902979080  0.7544867716174121  0.2732783364375620
  0.4533637878048374  0.7971185697737376  0.8000186277380179
  0.6803843699437049  0.0133905241464080  0.2735282532678114
  0.6782422546419505  0.0109261696518957  0.7163491702149866
  0.3335481176344577  0.9844953048300552  0.2159170941687598
  0.8373035399145821  0.4815599412014040  0.2335409566522127
  0.8337264486489692  0.4865495637117379  0.7710079866686116
  0.0854472368154060  0.7319940304440096  0.2667234158371642
  0.0637178361362706  0.7516815185785793  0.7887586587022706
  0.3354318315156431  0.9788555311512377  0.7589802226294616
  0.5806524079146979  0.2407062879226084  0.2740717575856891
  0.5525761724099209  0.2622957323569271  0.6529588565873042
  0.0817113919177487  0.2383604432350441  0.2751362766651554
  0.0632343976667411  0.2732938254891523  0.6871922673158283
  0.2746066240593639  0.4767761744366262  0.1269182455973198
  0.3294530790391509  0.4876909863020380  0.7749650667307150
  0.5807824434329386  0.7375127645225296  0.2439023260340698
  0.5589558687836551  0.7057692097196985  0.6629253469167175
  0.8437013666265015  0.9848355986747265  0.2237620402247965
  0.8426010745994248  0.9842408352743898  0.7551554250253181
  0.2652173376481461  0.9686996602593895  0.1280761538677508
  0.7782491600301585  0.4770975701401534  0.1324179782660024
  0.7689065844610723  0.4154554341135789  0.7657619527697095
  0.0184114817438535  0.6637293472897184  0.2607568828904184
  0.9955469229506957  0.6850603752544187  0.7876095967090038
  0.2638999322644036  0.9150982416710581  0.7713193539439711
  0.5108003702602018  0.1745970009280465  0.2793657897489926
  0.4967113296648420  0.1857600419708429  0.6638446879967572
  0.0148908722236490  0.1692338269897110  0.2768493661731952
  0.0311806737010022  0.1862301264632930  0.6644433006623827
  0.2653303075992071  0.4187350666794906  0.2285904543929338
  0.2617278581444967  0.4198083040045835  0.7678239922431986
  0.5218460331806197  0.6741313952024018  0.2997992882583310
  0.4769005508547335  0.6743131764767850  0.7096798738880220
  0.7710932405813121  0.9785588161234655  0.1386557753427010
  0.7748200317595765  0.9163504154918674  0.7460814615143094
  0.2692372048534225  0.9142891199628108  0.2334533390515990
  0.7674923217608572  0.4155986248459905  0.2301516140866578
  0.7701852300336723  0.4754435300210904  0.8685079981161956
  0.0255516689649268  0.7187214196102937  0.3676620037712860
  0.9843604168547999  0.7641086388522461  0.8613198978143116
  0.2780723721329519  0.9818736963574525  0.8639797322098275
  0.5242899854413551  0.2352390635047602  0.3799517301342390
  0.5481059864574440  0.2145756431474160  0.7679518664652966
  0.0190030112964732  0.2335023438415563  0.3744911449702258
  0.0535986250789996  0.2121300278312515  0.7878158133366486
  0.3328987844494437  0.4869435255180904  0.2283998447514226
  0.2636600258919124  0.4793552498952257  0.8707622729643602
  0.5367196877993248  0.7604873433888494  0.3558538106369450
  0.5455952984754470  0.6977499027501365  0.7938885442910211
  0.7758549215926502  0.9174834272633734  0.2381015218201300
  0.7713368240484065  0.9801093364287833  0.8450006998426511
  0.2373704398052083  0.7634129490405718  0.5024843196485169
  0.7395828504733480  0.2623543225927477  0.4968183546804842
  0.7268009106454426  0.2628151669360950  0.9934243580056409
  0.9836833445714791  0.5103975069245384  0.5020394916759945
  0.9902014068314485  0.5116728710311508  0.9992724335938546
  0.2390285737723258  0.7610342350196397  0.9988572421854405
  0.4846797955266012  0.0103673539772118  0.4897646445046682
  0.4958909382689130  0.0318634171280295 -0.0108085996061502
  0.9889213257973141  0.0091643132713241  0.4877446629855900
  0.9937458822854124  0.0149592798501476  0.9860317091369146
  0.2398081799340865  0.2661844446492114  0.4990215035054835
  0.2344678825097302  0.2597055448434926  0.9957914130531151
  0.4805058251974636  0.5105873316031795  0.4999036383784412
  0.4882767902497585  0.5101962101886445  0.9991739227308829
  0.7399798827845336  0.7609438105797651  0.4881433542234305
  0.7404389362749592  0.7554048835134941  0.9869024947801821
  0.2309628741923662  0.7693531349282337  0.2474775278106257
  0.7220629774970376  0.2748522585325028  0.2458766029616088
  0.7289443950661073  0.2739893867748218  0.7457138117282919
  0.9811201651671642  0.5162999315026419  0.2483921844357203
  0.9715118202556093  0.5378289245989361  0.7505347819117438
  0.2092454366831130  0.7775727994230146  0.7495355948708204
  0.4727829270610672  0.0352965201290019  0.2391387711480592
  0.4787912056403590  0.0196223569517148  0.7403331206955821
  0.9825687654811711  0.0273838660516253  0.2364702381515990
  0.9820387764222371  0.0212966498748966  0.7364861371080331
  0.2224449692295889  0.2755816938627503  0.2469775365838202
  0.2310179236200855  0.2782894170555976  0.7469938609356082
  0.4761373681633240  0.5305697909372270  0.2493190680902402
  0.4712126212709279  0.5138521525688006  0.7490754331347069
  0.7311420064864939  0.7730735928402690  0.2352629622199026
  0.7295021006422202  0.7759407726525192  0.7367360141619793
  0.3736629252761670  0.8758353212278194  0.9924284567140833
  0.8733997626889319  0.3698701192778055  0.9968520824544502
  0.8328913921543238  0.4145449082847735  0.4985499410951205
  0.0830489485420302  0.6633795625934727  0.0133167369234187
  0.1204726193145773  0.6269643207799487  0.5011934525109908
  0.3359319830967397  0.9134233028532590  0.4945314083793664
  0.5531033381098034  0.2008769875134714  0.9784258802620058
  0.6251879394236950  0.1233415334233339  0.4967391058719838
  0.0782825702031428  0.1728038061640289  0.9798955255132212
  0.1257159448901417  0.1266106229745483  0.5015984494024760
  0.3758018793661599  0.3707687213255105  0.0022197529096293
  0.3272348016470670  0.4218670149974063  0.4920745144841631
  0.5863242860502721  0.6579261743977297  0.9796013386384207
  0.6227002537025549  0.6248142533962565  0.5029217302820735
  0.8864247796836654  0.8646445029246062  0.9745084874026797
  0.8444094111773988  0.9056245206727530  0.4858341494916715
  0.0937515556170367  0.8702522846146749  0.4738585960139153
  0.5825612666161520  0.3619417271576787  0.5080816206550922
  0.6446115417418653  0.4234904088633871  0.0020699624129721
  0.8795794132035903  0.6564497813814308  0.4742768012360509
  0.8324471572175552  0.6050976871926609  0.0031377782201639
  0.1410998402936942  0.9188708226478791 -0.0000946714518018
  0.3875274033631221  0.1671959285433847  0.5007718765295442
  0.3296626843397612  0.1083320528291215  0.9906087202861356
  0.8829603058535984  0.1599897604560372  0.4849243844703059
  0.8512479805032716  0.1300393833373417  0.9884525529591252
  0.0808286074648924  0.3602455821125146  0.5113360428171912
  0.1425732269407734  0.4189475257372217  0.9979112338142651
  0.3873328955151347  0.6663550214386300  0.5130865022186191
  0.3342307435991212  0.6103596495448178  0.9988195401751206
  0.5889097841943152  0.8675741652779760  0.4775313910943814
  0.5924072975681981  0.8613277084203997  0.9986856426798366
  0.6826902673294845  0.0211933767521986 -0.0041340430185837
 
  0.00000000E+00  0.00000000E+00  0.00000000E+00
  0.00000000E+00  0.00000000E+00  0.00000000E+00
  0.00000000E+00  0.00000000E+00  0.00000000E+00
  0.00000000E+00  0.00000000E+00  0.00000000E+00
  0.00000000E+00  0.00000000E+00  0.00000000E+00
  0.00000000E+00  0.00000000E+00  0.00000000E+00
  0.00000000E+00  0.00000000E+00  0.00000000E+00
  0.00000000E+00  0.00000000E+00  0.00000000E+00
  0.00000000E+00  0.00000000E+00  0.00000000E+00
  0.00000000E+00  0.00000000E+00  0.00000000E+00
  0.00000000E+00  0.00000000E+00  0.00000000E+00
  0.00000000E+00  0.00000000E+00  0.00000000E+00
  0.00000000E+00  0.00000000E+00  0.00000000E+00
  0.00000000E+00  0.00000000E+00  0.00000000E+00
  0.00000000E+00  0.00000000E+00  0.00000000E+00
  0.00000000E+00  0.00000000E+00  0.00000000E+00
  0.00000000E+00  0.00000000E+00  0.00000000E+00
  0.00000000E+00  0.00000000E+00  0.00000000E+00
  0.00000000E+00  0.00000000E+00  0.00000000E+00
  0.00000000E+00  0.00000000E+00  0.00000000E+00
  0.00000000E+00  0.00000000E+00  0.00000000E+00
  0.00000000E+00  0.00000000E+00  0.00000000E+00
  0.00000000E+00  0.00000000E+00  0.00000000E+00
  0.00000000E+00  0.00000000E+00  0.00000000E+00
  0.00000000E+00  0.00000000E+00  0.00000000E+00
  0.00000000E+00  0.00000000E+00  0.00000000E+00
  0.00000000E+00  0.00000000E+00  0.00000000E+00
  0.00000000E+00  0.00000000E+00  0.00000000E+00
  0.00000000E+00  0.00000000E+00  0.00000000E+00
  0.00000000E+00  0.00000000E+00  0.00000000E+00
  0.00000000E+00  0.00000000E+00  0.00000000E+00
  0.00000000E+00  0.00000000E+00  0.00000000E+00
  0.00000000E+00  0.00000000E+00  0.00000000E+00
  0.00000000E+00  0.00000000E+00  0.00000000E+00
  0.00000000E+00  0.00000000E+00  0.00000000E+00
  0.00000000E+00  0.00000000E+00  0.00000000E+00
  0.00000000E+00  0.00000000E+00  0.00000000E+00
  0.00000000E+00  0.00000000E+00  0.00000000E+00
  0.00000000E+00  0.00000000E+00  0.00000000E+00
  0.00000000E+00  0.00000000E+00  0.00000000E+00
  0.00000000E+00  0.00000000E+00  0.00000000E+00
  0.00000000E+00  0.00000000E+00  0.00000000E+00
  0.00000000E+00  0.00000000E+00  0.00000000E+00
  0.00000000E+00  0.00000000E+00  0.00000000E+00
  0.00000000E+00  0.00000000E+00  0.00000000E+00
  0.00000000E+00  0.00000000E+00  0.00000000E+00
  0.00000000E+00  0.00000000E+00  0.00000000E+00
  0.00000000E+00  0.00000000E+00  0.00000000E+00
  0.00000000E+00  0.00000000E+00  0.00000000E+00
  0.00000000E+00  0.00000000E+00  0.00000000E+00
  0.00000000E+00  0.00000000E+00  0.00000000E+00
  0.00000000E+00  0.00000000E+00  0.00000000E+00
  0.00000000E+00  0.00000000E+00  0.00000000E+00
  0.00000000E+00  0.00000000E+00  0.00000000E+00
  0.00000000E+00  0.00000000E+00  0.00000000E+00
  0.00000000E+00  0.00000000E+00  0.00000000E+00
  0.00000000E+00  0.00000000E+00  0.00000000E+00
  0.00000000E+00  0.00000000E+00  0.00000000E+00
  0.00000000E+00  0.00000000E+00  0.00000000E+00
  0.00000000E+00  0.00000000E+00  0.00000000E+00
  0.00000000E+00  0.00000000E+00  0.00000000E+00
  0.00000000E+00  0.00000000E+00  0.00000000E+00
  0.00000000E+00  0.00000000E+00  0.00000000E+00
  0.00000000E+00  0.00000000E+00  0.00000000E+00
  0.00000000E+00  0.00000000E+00  0.00000000E+00
  0.00000000E+00  0.00000000E+00  0.00000000E+00
  0.00000000E+00  0.00000000E+00  0.00000000E+00
  0.00000000E+00  0.00000000E+00  0.00000000E+00
  0.00000000E+00  0.00000000E+00  0.00000000E+00
  0.00000000E+00  0.00000000E+00  0.00000000E+00
  0.00000000E+00  0.00000000E+00  0.00000000E+00
  0.00000000E+00  0.00000000E+00  0.00000000E+00
  0.00000000E+00  0.00000000E+00  0.00000000E+00
  0.00000000E+00  0.00000000E+00  0.00000000E+00
  0.00000000E+00  0.00000000E+00  0.00000000E+00
  0.00000000E+00  0.00000000E+00  0.00000000E+00
  0.00000000E+00  0.00000000E+00  0.00000000E+00
  0.00000000E+00  0.00000000E+00  0.00000000E+00
  0.00000000E+00  0.00000000E+00  0.00000000E+00
  0.00000000E+00  0.00000000E+00  0.00000000E+00
  0.00000000E+00  0.00000000E+00  0.00000000E+00
  0.00000000E+00  0.00000000E+00  0.00000000E+00
  0.00000000E+00  0.00000000E+00  0.00000000E+00
  0.00000000E+00  0.00000000E+00  0.00000000E+00
  0.00000000E+00  0.00000000E+00  0.00000000E+00
  0.00000000E+00  0.00000000E+00  0.00000000E+00
  0.00000000E+00  0.00000000E+00  0.00000000E+00
  0.00000000E+00  0.00000000E+00  0.00000000E+00
  0.00000000E+00  0.00000000E+00  0.00000000E+00
  0.00000000E+00  0.00000000E+00  0.00000000E+00
  0.00000000E+00  0.00000000E+00  0.00000000E+00
  0.00000000E+00  0.00000000E+00  0.00000000E+00
  0.00000000E+00  0.00000000E+00  0.00000000E+00
  0.00000000E+00  0.00000000E+00  0.00000000E+00
  0.00000000E+00  0.00000000E+00  0.00000000E+00
  0.00000000E+00  0.00000000E+00  0.00000000E+00
  0.00000000E+00  0.00000000E+00  0.00000000E+00
  0.00000000E+00  0.00000000E+00  0.00000000E+00
  0.00000000E+00  0.00000000E+00  0.00000000E+00
  0.00000000E+00  0.00000000E+00  0.00000000E+00
  0.00000000E+00  0.00000000E+00  0.00000000E+00
  0.00000000E+00  0.00000000E+00  0.00000000E+00
  0.00000000E+00  0.00000000E+00  0.00000000E+00
  0.00000000E+00  0.00000000E+00  0.00000000E+00
  0.00000000E+00  0.00000000E+00  0.00000000E+00
  0.00000000E+00  0.00000000E+00  0.00000000E+00
  0.00000000E+00  0.00000000E+00  0.00000000E+00
  0.00000000E+00  0.00000000E+00  0.00000000E+00
  0.00000000E+00  0.00000000E+00  0.00000000E+00
  0.00000000E+00  0.00000000E+00  0.00000000E+00
  0.00000000E+00  0.00000000E+00  0.00000000E+00
  0.00000000E+00  0.00000000E+00  0.00000000E+00
  0.00000000E+00  0.00000000E+00  0.00000000E+00
  0.00000000E+00  0.00000000E+00  0.00000000E+00
  0.00000000E+00  0.00000000E+00  0.00000000E+00
  0.00000000E+00  0.00000000E+00  0.00000000E+00
  0.00000000E+00  0.00000000E+00  0.00000000E+00
  0.00000000E+00  0.00000000E+00  0.00000000E+00
  0.00000000E+00  0.00000000E+00  0.00000000E+00
  0.00000000E+00  0.00000000E+00  0.00000000E+00
  0.00000000E+00  0.00000000E+00  0.00000000E+00
  0.00000000E+00  0.00000000E+00  0.00000000E+00
  0.00000000E+00  0.00000000E+00  0.00000000E+00
  0.00000000E+00  0.00000000E+00  0.00000000E+00
  0.00000000E+00  0.00000000E+00  0.00000000E+00
  0.00000000E+00  0.00000000E+00  0.00000000E+00
  0.00000000E+00  0.00000000E+00  0.00000000E+00
  0.00000000E+00  0.00000000E+00  0.00000000E+00
  0.00000000E+00  0.00000000E+00  0.00000000E+00
  0.00000000E+00  0.00000000E+00  0.00000000E+00
  0.00000000E+00  0.00000000E+00  0.00000000E+00
  0.00000000E+00  0.00000000E+00  0.00000000E+00
  0.00000000E+00  0.00000000E+00  0.00000000E+00
  0.00000000E+00  0.00000000E+00  0.00000000E+00
  0.00000000E+00  0.00000000E+00  0.00000000E+00
  0.00000000E+00  0.00000000E+00  0.00000000E+00
  0.00000000E+00  0.00000000E+00  0.00000000E+00
  0.00000000E+00  0.00000000E+00  0.00000000E+00
  0.00000000E+00  0.00000000E+00  0.00000000E+00
  0.00000000E+00  0.00000000E+00  0.00000000E+00
  0.00000000E+00  0.00000000E+00  0.00000000E+00
  0.00000000E+00  0.00000000E+00  0.00000000E+00
  0.00000000E+00  0.00000000E+00  0.00000000E+00
  0.00000000E+00  0.00000000E+00  0.00000000E+00
  0.00000000E+00  0.00000000E+00  0.00000000E+00
  0.00000000E+00  0.00000000E+00  0.00000000E+00
  0.00000000E+00  0.00000000E+00  0.00000000E+00
  0.00000000E+00  0.00000000E+00  0.00000000E+00
  0.00000000E+00  0.00000000E+00  0.00000000E+00
  0.00000000E+00  0.00000000E+00  0.00000000E+00
  0.00000000E+00  0.00000000E+00  0.00000000E+00
  0.00000000E+00  0.00000000E+00  0.00000000E+00
  0.00000000E+00  0.00000000E+00  0.00000000E+00
  0.00000000E+00  0.00000000E+00  0.00000000E+00
  0.00000000E+00  0.00000000E+00  0.00000000E+00
  0.00000000E+00  0.00000000E+00  0.00000000E+00
  0.00000000E+00  0.00000000E+00  0.00000000E+00
  0.00000000E+00  0.00000000E+00  0.00000000E+00
  0.00000000E+00  0.00000000E+00  0.00000000E+00
  0.00000000E+00  0.00000000E+00  0.00000000E+00
  0.00000000E+00  0.00000000E+00  0.00000000E+00
  0.00000000E+00  0.00000000E+00  0.00000000E+00
  0.00000000E+00  0.00000000E+00  0.00000000E+00
  0.00000000E+00  0.00000000E+00  0.00000000E+00
  0.00000000E+00  0.00000000E+00  0.00000000E+00
  0.00000000E+00  0.00000000E+00  0.00000000E+00
  0.00000000E+00  0.00000000E+00  0.00000000E+00
  0.00000000E+00  0.00000000E+00  0.00000000E+00
  0.00000000E+00  0.00000000E+00  0.00000000E+00
  0.00000000E+00  0.00000000E+00  0.00000000E+00
  0.00000000E+00  0.00000000E+00  0.00000000E+00
  0.00000000E+00  0.00000000E+00  0.00000000E+00
  0.00000000E+00  0.00000000E+00  0.00000000E+00
  0.00000000E+00  0.00000000E+00  0.00000000E+00
  0.00000000E+00  0.00000000E+00  0.00000000E+00
  0.00000000E+00  0.00000000E+00  0.00000000E+00
  0.00000000E+00  0.00000000E+00  0.00000000E+00
  0.00000000E+00  0.00000000E+00  0.00000000E+00
  0.00000000E+00  0.00000000E+00  0.00000000E+00
  0.00000000E+00  0.00000000E+00  0.00000000E+00
  0.00000000E+00  0.00000000E+00  0.00000000E+00
  0.00000000E+00  0.00000000E+00  0.00000000E+00
  0.00000000E+00  0.00000000E+00  0.00000000E+00
  0.00000000E+00  0.00000000E+00  0.00000000E+00
  0.00000000E+00  0.00000000E+00  0.00000000E+00
  0.00000000E+00  0.00000000E+00  0.00000000E+00
  0.00000000E+00  0.00000000E+00  0.00000000E+00
  0.00000000E+00  0.00000000E+00  0.00000000E+00
  0.00000000E+00  0.00000000E+00  0.00000000E+00
  0.00000000E+00  0.00000000E+00  0.00000000E+00
  0.00000000E+00  0.00000000E+00  0.00000000E+00
  0.00000000E+00  0.00000000E+00  0.00000000E+00
  0.00000000E+00  0.00000000E+00  0.00000000E+00
